;
;Input Summary created by Aspen Plus Rel. 39.0 at 09:07:23 Thu Oct 2, 2025
;Directory   Filename C:\Users\manerbr\OneDrive - Air Products and Chemicals, Inc\Documents\My_Documents\CD1\Bid_Support\Edmonton3\Blue_H2_optimizer\Lehigh\Example_3_ASU\inp_file_with_graphics\txam_55.inp
;
;                             ****************
;                             PROPRIETARY DATA
;                             ****************
;
;        The information or data contained herein is proprietary to
;        Air Products and Chemicals, Inc. and is not to be copied,
;        reproduced, duplicated or disclosed to others, in whole or
;        in part without the prior written consent of Air Products
;        and Chemicals, Inc. This restriction shall not apply to any
;        information or data contained herein which is available to
;        the public generally.
;



TITLE 'ASU example' 

IN-UNITS ENG SHORT-LENGTH=in 

DEF-STREAMS CONVEN ALL 

SIM-OPTIONS MASS-BAL-CHE=YES RESTART=NO FLASH-MAXIT=250  &
        FLASH-TOL=1E-008 MW-CALC=NO 

MODEL-OPTION 

ACCOUNT-INFO ACCOUNT=001 PROJECT-ID=001 PROJECT-NAME="ASU"  &
        USER-NAME="AIR PRODUCTS" 

RUN-CONTROL MAX-TIME=99999. MAX-ERRORS=32767 MAX-FORT-ERR=32767 

DESCRIPTION "
    DESIGN AND INTEGRATION ANALYSIS OF CRYOGENIC AIR SEPARATION UNIT 
    A Thesis 
    by 
    TUSHAR GOEL 
      
    Submitted to the Office of Graduate and Professional Studies of 
    Texas A&M University 
    in partial fulfillment of the requirements for the degree of 
    MASTER OF SCIENCE 
      
    Chair of Committee, Mahmoud El-Halwagi 
    Committee Members, Ahmad Hilaly 
    Hisham Nasr-El-Din 
    Head of Department, M. Nazmul Karim 
    May 2019 
      
    Based on Case C, p. 45 of the thesis 
      
      
    "

DATABANKS 'APV121 ASPENPCD' / 'APV121 PURE39' / 'APV121 AQUEOUS' &
         / 'APV121 SOLIDS' / 'APV121 INORGANIC'

PROP-SOURCES 'APV121 ASPENPCD' / 'APV121 PURE39' /  &
        'APV121 AQUEOUS' / 'APV121 SOLIDS' / 'APV121 INORGANIC'

COMPONENTS 
    N2 N2 / 
    AR AR / 
    O2 O2 / 
    WA H2O 

SOLVE 
    RUN-MODE MODE=SIM 

FLOWSHEET 
    BLOCK HPCOL IN=109 GASAIRX OUT=11 5 
    BLOCK VALVE1 IN=HPLAIRX OUT=109 
    BLOCK MIX218 IN=130 85 OUT=208 
    BLOCK SPLT350 IN=350 OUT=80 LIN 
    BLOCK DRUM1 IN=29B OUT=85 350 
    BLOCK LOXSPLT IN=71 OUT=LOX 299A 
    BLOCK LPCOL IN=LPAIRX CLOXX 80 90X LAIR2 OUT=130 71 89  &
        140 
    BLOCK HX1 IN=208 5 140 11 OUT=G 29 12 W 
    BLOCK ARGCOL IN=89 OUT=160 90 
    BLOCK HX2 IN=160 97 OUT=LAR 52 
    BLOCK DRUM2 IN=52 OUT=15 16 
    BLOCK VALVE2 IN=12 OUT=97 
    BLOCK VALVE3 IN=29X OUT=29B 
    BLOCK MIX15 IN=16 15 OUT=CLOX 
    BLOCK VALVE4 IN=LPLAIRX OUT=LAIR2 
    BLOCK MAC IN=AIR OUT=300 
    BLOCK SPL2 IN=301 OUT=303 302 
    BLOCK SPL1 IN=300 OUT=301 304 
    BLOCK BOOSTER IN=304 OUT=400 
    BLOCK COMP3 IN=302 OUT=305 
    BLOCK LPEX IN=305 303 WX GX OUT=310 GASAIR WASTE GAN 
    BLOCK EXPDR1 IN=310 OUT=LPAIR 
    BLOCK HPEX IN=400 LOXX OUT=405 GOX 
    BLOCK EXPDR2 IN=405 OUT=406 
    BLOCK SPL3 IN=406 OUT=HPLAIR LPLAIR 

PROPERTIES PENG-ROB 

PROP-DATA PRKBV-1
    IN-UNITS ENG SHORT-LENGTH=in 
    PROP-LIST PRKBV 
    BPVAL N2 AR -2.6000000E-3 0.0 0.0 -459.6700000 1340.330000 
    BPVAL AR N2 -2.6000000E-3 0.0 0.0 -459.6700000 1340.330000 
    BPVAL N2 O2 -.0119000000 0.0 0.0 -459.6700000 1340.330000 
    BPVAL O2 N2 -.0119000000 0.0 0.0 -459.6700000 1340.330000 
    BPVAL AR O2 .0104000000 0.0 0.0 -459.6700000 1340.330000 
    BPVAL O2 AR .0104000000 0.0 0.0 -459.6700000 1340.330000 

PROP-SET TBUB TBUB UNITS='F' SUBSTREAM=MIXED 

STREAM 29X 
    SUBSTREAM MIXED TEMP=-306.9 PRES=82. 
    MOLE-FLOW N2 3585.9 / AR 2.8 / O2 0.002 

STREAM 80 
    SUBSTREAM MIXED TEMP=-306.4 PRES=33.7 MOLE-FLOW=1972.1 
    MOLE-FRAC N2 0.9999 / AR 0.0001 

STREAM 90X 
    SUBSTREAM MIXED PRES=21. VFRAC=0. 
    MOLE-FLOW N2 0.000659 / AR 142.7 / O2 2139.5 

STREAM AIR 
    SUBSTREAM MIXED TEMP=60. PRES=14.7 MOLE-FLOW=11102.5 
    MOLE-FRAC N2 0.781196 / AR 0.00934105 / O2 0.209463 

STREAM CLOXX 
    SUBSTREAM MIXED TEMP=-301. PRES=24.5 
    MOLE-FLOW N2 2147.2 / AR 65.73 / O2 1537.3 

STREAM GASAIRX 
    SUBSTREAM MIXED TEMP=-243.4 PRES=87. MOLE-FLOW=6338. 
    MOLE-FRAC N2 0.781196 / AR 0.00934105 / O2 0.209463 

STREAM GX 
    SUBSTREAM MIXED TEMP=-284.81 PRES=18.8 MOLE-FLOW=3694.82 
    MOLE-FRAC N2 0.999563 / AR 0.0003666 

STREAM HPLAIRX 
    SUBSTREAM MIXED TEMP=96.7 <K> PRES=83.7 MOLE-FLOW=1000.9 
    MOLE-FRAC N2 0.7812 / AR 0.0093 / O2 0.2095 

STREAM LOXX 
    SUBSTREAM MIXED TEMP=93.7 <K> PRES=1270. MOLE-FLOW=3500. 
    MOLE-FRAC O2 1. 

STREAM LPAIRX 
    SUBSTREAM MIXED TEMP=109.5 <K> PRES=19.5 MOLE-FLOW=1186. 
    MOLE-FRAC N2 0.781196 / AR 0.00934105 / O2 0.209463 

STREAM LPLAIRX 
    SUBSTREAM MIXED TEMP=96.7 <K> PRES=83.7 MOLE-FLOW=2577. 
    MOLE-FRAC N2 0.7986 / AR 0.0097 / O2 0.1916 

STREAM WX 
    SUBSTREAM MIXED TEMP=-281.4 PRES=18.88 MOLE-FLOW=5150.89 
    MOLE-FRAC N2 0.95 / AR 0.006 / O2 0.044 

BLOCK MIX15 MIXER 
    PARAM 

BLOCK MIX218 MIXER 
    PARAM 

BLOCK LOXSPLT FSPLIT 
    FRAC 299A 0.0001 

BLOCK SPL1 FSPLIT 
    FRAC 301 0.67772 

BLOCK SPL2 FSPLIT 
    FRAC 303 0.84237 

BLOCK SPL3 FSPLIT 
    FRAC LPLAIR 0.72 

BLOCK SPLT350 FSPLIT 
    FRAC 80 0.9999 

BLOCK VALVE2 HEATER 
    PARAM PRES=-60. DUTY=0. DPPARMOPT=NO 

BLOCK VALVE3 HEATER 
    PARAM PRES=-61. DUTY=0. DPPARMOPT=NO 

BLOCK VALVE4 HEATER 
    PARAM PRES=-61. DUTY=0. DPPARMOPT=NO 

BLOCK DRUM1 FLASH2 
    PARAM PRES=0. DUTY=0. 

BLOCK DRUM2 FLASH2 
    PARAM PRES=-0.3 DUTY=6470000. 

BLOCK HPEX MHEATX 
    HOT-SIDE IN=400 OUT=405 TEMP=99.1 <K> FREE-WATER=NO  &
        DPPARMOPT=NO 
    COLD-SIDE IN=LOXX OUT=GOX FREE-WATER=NO DPPARMOPT=NO 
    PARAM NPOINT=50 CHECK-PHASE=0 

BLOCK HX1 MHEATX 
    COLD-SIDE IN=208 OUT=G TEMP=-282.9 FREE-WATER=NO  &
        DPPARMOPT=NO 
    HOT-SIDE IN=5 OUT=12 FREE-WATER=NO DPPARMOPT=NO 
    COLD-SIDE IN=140 OUT=W TEMP=-278.7 FREE-WATER=NO  &
        DPPARMOPT=NO 
    HOT-SIDE IN=11 OUT=29 FREE-WATER=NO DPPARMOPT=NO 
    PARAM NPOINT=20 MAXIT=100 CHECK-PHASE=0 

BLOCK HX2 MHEATX 
    HOT-SIDE IN=160 OUT=LAR VFRAC=0. FREE-WATER=NO  &
        DPPARMOPT=NO 
    COLD-SIDE IN=97 OUT=52 PRES=-0.2 FREE-WATER=NO DPPARMOPT=NO 
    PARAM CHECK-PHASE=0 

BLOCK LPEX MHEATX 
    HOT-SIDE IN=305 OUT=310 TEMP=-155. FREE-WATER=NO  &
        DPPARMOPT=NO 
    HOT-SIDE IN=303 OUT=GASAIR TEMP=124. <K> FREE-WATER=NO  &
        DPPARMOPT=NO 
    COLD-SIDE IN=WX OUT=WASTE FREE-WATER=NO DPPARMOPT=NO 
    COLD-SIDE IN=GX OUT=GAN FREE-WATER=NO DPPARMOPT=NO 
    PARAM NPOINT=50 CHECK-PHASE=0 

BLOCK ARGCOL RADFRAC 
    PARAM NSTAGE=85 ALGORITHM=STANDARD MAXOL=100 TOLOL=1E-007  &
        DAMPING=NONE 
    PARAM2 
    COL-CONFIG CONDENSER=PARTIAL-V REBOILER=NONE 
    FEEDS 89 85 ON-STAGE 
    PRODUCTS 90 85 L / 160 1 V 
    P-SPEC 1 20. 
    COL-SPECS D:F=0.031 DP-COL=1. 
    STAGE-EFF 1 1. / 2 0.9 / 46 0.9 / 47 0.91 / 84  &
        0.91 / 85 1. 
    T-EST 1 -295.8 / 2 -295.7 / 3 -295.7 / 4 -295.6 / 5  &
        -295.6 / 6 -295.5 / 7 -295.5 / 8 -295.4 / 9  &
        -295.3 / 10 -295.3 / 11 -295.2 / 12 -295.2 / 13  &
        -295.1 / 14 -295. / 15 -295. / 16 -294.9 / 17  &
        -294.9 / 18 -294.8 / 19 -294.7 / 20 -294.7 / 21  &
        -294.6 / 22 -294.5 / 23 -294.4 / 24 -294.4 / 25  &
        -294.3 / 26 -294.2 / 27 -294.1 / 28 -294. / 29  &
        -293.9 / 30 -293.8 / 31 -293.7 / 32 -293.5 / 33  &
        -293.4 / 34 -293.2 / 35 -293. / 36 -292.7 / 37  &
        -292.5 / 38 -292.2 / 39 -291.8 / 40 -291.5 / 41  &
        -291.1 / 42 -290.8 / 43 -290.4 / 44 -290.1 / 45  &
        -289.8 / 46 -289.6 / 47 -289.4 / 48 -289.2 / 49  &
        -289. / 50 -288.9 / 51 -288.8 / 52 -288.7 / 53  &
        -288.7 / 54 -288.6 / 55 -288.5 / 56 -288.5 / 57  &
        -288.4 / 58 -288.4 / 59 -288.3 / 60 -288.3 / 61  &
        -288.2 / 62 -288.2 / 63 -288.1 / 64 -288.1 / 65  &
        -288. / 66 -288. / 67 -287.9 / 68 -287.9 / 69  &
        -287.8 / 70 -287.8 / 71 -287.7 / 72 -287.7 / 73  &
        -287.6 / 74 -287.6 / 75 -287.6 / 76 -287.5 / 77  &
        -287.5 / 78 -287.4 / 79 -287.4 / 80 -287.3 / 81  &
        -287.3 / 82 -287.2 / 83 -287.2 / 84 -287.1 / 85  &
        -287.1 
    L-EST 1 1646. / 2 1646. / 3 1646. / 4 1646. / 5  &
        1646. / 6 1647. / 7 1647. / 8 1647. / 9 1647. /  &
        10 1647. / 11 1647. / 12 1647. / 13 1647. / 14  &
        1647. / 15 1647. / 16 1647. / 17 1647. / 18  &
        1647. / 19 1647. / 20 1647. / 21 1647. / 22  &
        1646. / 23 1646. / 24 1646. / 25 1645. / 26  &
        1645. / 27 1644. / 28 1643. / 29 1642. / 30  &
        1641. / 31 1640. / 32 1638. / 33 1636. / 34  &
        1633. / 35 1630. / 36 1626. / 37 1622. / 38  &
        1618. / 39 1613. / 40 1608. / 41 1603. / 42  &
        1598. / 43 1594. / 44 1590. / 45 1587. / 46  &
        1585. / 47 1583. / 48 1582. / 49 1581. / 50  &
        1580. / 51 1580. / 52 1580. / 53 1580. / 54  &
        1580. / 55 1580. / 56 1580. / 57 1580. / 58  &
        1580. / 59 1580. / 60 1581. / 61 1581. / 62  &
        1581. / 63 1581. / 64 1581. / 65 1582. / 66  &
        1582. / 67 1582. / 68 1582. / 69 1582. / 70  &
        1583. / 71 1583. / 72 1583. / 73 1583. / 74  &
        1583. / 75 1584. / 76 1584. / 77 1584. / 78  &
        1584. / 79 1585. / 80 1585. / 81 1585. / 82  &
        1585. / 83 1585. / 84 1586. / 85 1592. 
    V-EST 1 45.03 / 2 1691. / 3 1691. / 4 1691. / 5  &
        1691. / 6 1691. / 7 1692. / 8 1692. / 9 1692. /  &
        10 1692. / 11 1692. / 12 1692. / 13 1692. / 14  &
        1692. / 15 1692. / 16 1692. / 17 1692. / 18  &
        1692. / 19 1692. / 20 1692. / 21 1692. / 22  &
        1692. / 23 1692. / 24 1691. / 25 1691. / 26  &
        1690. / 27 1690. / 28 1689. / 29 1688. / 30  &
        1687. / 31 1686. / 32 1685. / 33 1683. / 34  &
        1681. / 35 1678. / 36 1675. / 37 1671. / 38  &
        1667. / 39 1663. / 40 1658. / 41 1653. / 42  &
        1648. / 43 1643. / 44 1639. / 45 1635. / 46  &
        1632. / 47 1630. / 48 1628. / 49 1627. / 50  &
        1626. / 51 1626. / 52 1625. / 53 1625. / 54  &
        1625. / 55 1625. / 56 1625. / 57 1625. / 58  &
        1625. / 59 1625. / 60 1625. / 61 1626. / 62  &
        1626. / 63 1626. / 64 1626. / 65 1626. / 66  &
        1627. / 67 1627. / 68 1627. / 69 1627. / 70  &
        1627. / 71 1628. / 72 1628. / 73 1628. / 74  &
        1628. / 75 1629. / 76 1629. / 77 1629. / 78  &
        1629. / 79 1629. / 80 1630. / 81 1630. / 82  &
        1630. / 83 1630. / 84 1630. / 85 1631. 
    X-EST 1 N2 8.716E-06 / 1 AR 0.978 / 1 O2 0.02196 /  &
        2 N2 3.322E-06 / 2 AR 0.9762 / 2 O2 0.02385 / 3  &
        N2 1.406E-06 / 3 AR 0.9741 / 3 O2 0.02586 / 4 N2  &
        7.249E-07 / 4 AR 0.972 / 4 O2 0.02801 / 5 N2  &
        4.829E-07 / 5 AR 0.9697 / 5 O2 0.03031 / 6 N2  &
        3.971E-07 / 6 AR 0.9672 / 6 O2 0.03277 / 7 N2  &
        3.667E-07 / 7 AR 0.9646 / 7 O2 0.03542 / 8 N2  &
        3.563E-07 / 8 AR 0.9617 / 8 O2 0.03825 / 9 N2  &
        3.529E-07 / 9 AR 0.9587 / 9 O2 0.0413 / 10 N2  &
        3.52E-07 / 10 AR 0.9554 / 10 O2 0.04458 / 11 N2  &
        3.52E-07 / 11 AR 0.9519 / 11 O2 0.04812 / 12 N2  &
        3.524E-07 / 12 AR 0.9481 / 12 O2 0.05194 / 13 N2  &
        3.529E-07 / 13 AR 0.9439 / 13 O2 0.05607 / 14 N2  &
        3.535E-07 / 14 AR 0.9395 / 14 O2 0.06055 / 15 N2  &
        3.542E-07 / 15 AR 0.9346 / 15 O2 0.0654 / 16 N2  &
        3.548E-07 / 16 AR 0.9293 / 16 O2 0.07068 / 17 N2  &
        3.555E-07 / 17 AR 0.9236 / 17 O2 0.07644 / 18 N2  &
        3.562E-07 / 18 AR 0.9173 / 18 O2 0.08272 / 19 N2  &
        3.569E-07 / 19 AR 0.9104 / 19 O2 0.08959 / 20 N2  &
        3.577E-07 / 20 AR 0.9029 / 20 O2 0.09713 / 21 N2  &
        3.585E-07 / 21 AR 0.8946 / 21 O2 0.1054 / 22 N2  &
        3.593E-07 / 22 AR 0.8854 / 22 O2 0.1146 / 23 N2  &
        3.601E-07 / 23 AR 0.8753 / 23 O2 0.1247 / 24 N2  &
        3.61E-07 / 24 AR 0.8641 / 24 O2 0.1359 / 25 N2  &
        3.618E-07 / 25 AR 0.8516 / 25 O2 0.1484 / 26 N2  &
        3.627E-07 / 26 AR 0.8376 / 26 O2 0.1624 / 27 N2  &
        3.636E-07 / 27 AR 0.8221 / 27 O2 0.1779 / 28 N2  &
        3.644E-07 / 28 AR 0.8046 / 28 O2 0.1954 / 29 N2  &
        3.652E-07 / 29 AR 0.7849 / 29 O2 0.2151 / 30 N2  &
        3.659E-07 / 30 AR 0.7627 / 30 O2 0.2373 / 31 N2  &
        3.665E-07 / 31 AR 0.7376 / 31 O2 0.2624 / 32 N2  &
        3.668E-07 / 32 AR 0.7094 / 32 O2 0.2906 / 33 N2  &
        3.668E-07 / 33 AR 0.6776 / 33 O2 0.3224 / 34 N2  &
        3.664E-07 / 34 AR 0.6418 / 34 O2 0.3582 / 35 N2  &
        3.654E-07 / 35 AR 0.602 / 35 O2 0.398 / 36 N2  &
        3.636E-07 / 36 AR 0.5581 / 36 O2 0.4419 / 37 N2  &
        3.61E-07 / 37 AR 0.5105 / 37 O2 0.4895 / 38 N2  &
        3.573E-07 / 38 AR 0.4599 / 38 O2 0.5401 / 39 N2  &
        3.525E-07 / 39 AR 0.4076 / 39 O2 0.5924 / 40 N2  &
        3.469E-07 / 40 AR 0.3554 / 40 O2 0.6446 / 41 N2  &
        3.405E-07 / 41 AR 0.3051 / 41 O2 0.6949 / 42 N2  &
        3.339E-07 / 42 AR 0.2586 / 42 O2 0.7414 / 43 N2  &
        3.274E-07 / 43 AR 0.2173 / 43 O2 0.7827 / 44 N2  &
        3.214E-07 / 44 AR 0.1821 / 44 O2 0.8179 / 45 N2  &
        3.161E-07 / 45 AR 0.153 / 45 O2 0.847 / 46 N2  &
        3.117E-07 / 46 AR 0.1297 / 46 O2 0.8703 / 47 N2  &
        3.081E-07 / 47 AR 0.1113 / 47 O2 0.8887 / 48 N2  &
        3.053E-07 / 48 AR 0.09726 / 48 O2 0.9027 / 49 N2  &
        3.032E-07 / 49 AR 0.0867 / 49 O2 0.9133 / 50 N2  &
        3.017E-07 / 50 AR 0.07885 / 50 O2 0.9212 / 51 N2  &
        3.006E-07 / 51 AR 0.07307 / 51 O2 0.9269 / 52 N2  &
        2.998E-07 / 52 AR 0.06883 / 52 O2 0.9312 / 53 N2  &
        2.993E-07 / 53 AR 0.06576 / 53 O2 0.9342 / 54 N2  &
        2.99E-07 / 54 AR 0.06353 / 54 O2 0.9365 / 55 N2  &
        2.988E-07 / 55 AR 0.06192 / 55 O2 0.9381 / 56 N2  &
        2.988E-07 / 56 AR 0.06077 / 56 O2 0.9392 / 57 N2  &
        2.988E-07 / 57 AR 0.05994 / 57 O2 0.9401 / 58 N2  &
        2.989E-07 / 58 AR 0.05935 / 58 O2 0.9406 / 59 N2  &
        2.99E-07 / 59 AR 0.05894 / 59 O2 0.9411 / 60 N2  &
        2.991E-07 / 60 AR 0.05865 / 60 O2 0.9414 / 61 N2  &
        2.993E-07 / 61 AR 0.05845 / 61 O2 0.9416 / 62 N2  &
        2.994E-07 / 62 AR 0.05831 / 62 O2 0.9417 / 63 N2  &
        2.996E-07 / 63 AR 0.05822 / 63 O2 0.9418 / 64 N2  &
        2.998E-07 / 64 AR 0.05817 / 64 O2 0.9418 / 65 N2  &
        3E-07 / 65 AR 0.05814 / 65 O2 0.9419 / 66 N2  &
        3.002E-07 / 66 AR 0.05813 / 66 O2 0.9419 / 67 N2  &
        3.004E-07 / 67 AR 0.05813 / 67 O2 0.9419 / 68 N2  &
        3.006E-07 / 68 AR 0.05814 / 68 O2 0.9419 / 69 N2  &
        3.008E-07 / 69 AR 0.05816 / 69 O2 0.9418 / 70 N2  &
        3.011E-07 / 70 AR 0.05818 / 70 O2 0.9418 / 71 N2  &
        3.013E-07 / 71 AR 0.05821 / 71 O2 0.9418 / 72 N2  &
        3.015E-07 / 72 AR 0.05823 / 72 O2 0.9418 / 73 N2  &
        3.017E-07 / 73 AR 0.05826 / 73 O2 0.9417 / 74 N2  &
        3.019E-07 / 74 AR 0.05829 / 74 O2 0.9417 / 75 N2  &
        3.021E-07 / 75 AR 0.05832 / 75 O2 0.9417 / 76 N2  &
        3.023E-07 / 76 AR 0.05836 / 76 O2 0.9416 / 77 N2  &
        3.025E-07 / 77 AR 0.05839 / 77 O2 0.9416 / 78 N2  &
        3.027E-07 / 78 AR 0.05842 / 78 O2 0.9416 / 79 N2  &
        3.029E-07 / 79 AR 0.05846 / 79 O2 0.9415 / 80 N2  &
        3.032E-07 / 80 AR 0.05849 / 80 O2 0.9415 / 81 N2  &
        3.034E-07 / 81 AR 0.05852 / 81 O2 0.9415 / 82 N2  &
        3.036E-07 / 82 AR 0.05856 / 82 O2 0.9414 / 83 N2  &
        3.038E-07 / 83 AR 0.05859 / 83 O2 0.9414 / 84 N2  &
        3.04E-07 / 84 AR 0.05862 / 84 O2 0.9414 / 85 N2  &
        3.042E-07 / 85 AR 0.05866 / 85 O2 0.9413 
    Y-EST 1 N2 2.56E-05 / 1 AR 0.98 / 1 O2 0.02 / 2 N2  &
        9.165E-06 / 2 AR 0.9781 / 2 O2 0.02191 / 3 N2  &
        3.915E-06 / 3 AR 0.9763 / 3 O2 0.02374 / 4 N2  &
        2.05E-06 / 4 AR 0.9743 / 4 O2 0.0257 / 5 N2  &
        1.387E-06 / 5 AR 0.9722 / 5 O2 0.02779 / 6 N2  &
        1.152E-06 / 6 AR 0.97 / 6 O2 0.03003 / 7 N2  &
        1.068E-06 / 7 AR 0.9676 / 7 O2 0.03243 / 8 N2  &
        1.038E-06 / 8 AR 0.965 / 8 O2 0.03501 / 9 N2  &
        1.028E-06 / 9 AR 0.9622 / 9 O2 0.03777 / 10 N2  &
        1.025E-06 / 10 AR 0.9593 / 10 O2 0.04074 / 11 N2  &
        1.024E-06 / 11 AR 0.9561 / 11 O2 0.04393 / 12 N2  &
        1.024E-06 / 12 AR 0.9526 / 12 O2 0.04737 / 13 N2  &
        1.024E-06 / 13 AR 0.9489 / 13 O2 0.05109 / 14 N2  &
        1.025E-06 / 14 AR 0.9449 / 14 O2 0.05511 / 15 N2  &
        1.025E-06 / 15 AR 0.9405 / 15 O2 0.05947 / 16 N2  &
        1.026E-06 / 16 AR 0.9358 / 16 O2 0.0642 / 17 N2  &
        1.027E-06 / 17 AR 0.9307 / 17 O2 0.06933 / 18 N2  &
        1.027E-06 / 18 AR 0.9251 / 18 O2 0.07493 / 19 N2  &
        1.028E-06 / 19 AR 0.919 / 19 O2 0.08105 / 20 N2  &
        1.029E-06 / 20 AR 0.9123 / 20 O2 0.08774 / 21 N2  &
        1.029E-06 / 21 AR 0.9049 / 21 O2 0.09508 / 22 N2  &
        1.03E-06 / 22 AR 0.8968 / 22 O2 0.1032 / 23 N2  &
        1.031E-06 / 23 AR 0.8879 / 23 O2 0.1121 / 24 N2  &
        1.032E-06 / 24 AR 0.8781 / 24 O2 0.1219 / 25 N2  &
        1.033E-06 / 25 AR 0.8672 / 25 O2 0.1328 / 26 N2  &
        1.034E-06 / 26 AR 0.855 / 26 O2 0.145 / 27 N2  &
        1.035E-06 / 27 AR 0.8414 / 27 O2 0.1586 / 28 N2  &
        1.036E-06 / 28 AR 0.8263 / 28 O2 0.1737 / 29 N2  &
        1.037E-06 / 29 AR 0.8092 / 29 O2 0.1908 / 30 N2  &
        1.039E-06 / 30 AR 0.7901 / 30 O2 0.2099 / 31 N2  &
        1.04E-06 / 31 AR 0.7685 / 31 O2 0.2315 / 32 N2  &
        1.041E-06 / 32 AR 0.7441 / 32 O2 0.2559 / 33 N2  &
        1.042E-06 / 33 AR 0.7166 / 33 O2 0.2834 / 34 N2  &
        1.043E-06 / 34 AR 0.6857 / 34 O2 0.3143 / 35 N2  &
        1.044E-06 / 35 AR 0.6509 / 35 O2 0.3491 / 36 N2  &
        1.044E-06 / 36 AR 0.6122 / 36 O2 0.3878 / 37 N2  &
        1.043E-06 / 37 AR 0.5695 / 37 O2 0.4305 / 38 N2  &
        1.043E-06 / 38 AR 0.5232 / 38 O2 0.4768 / 39 N2  &
        1.041E-06 / 39 AR 0.474 / 39 O2 0.526 / 40 N2  &
        1.038E-06 / 40 AR 0.4232 / 40 O2 0.5768 / 41 N2  &
        1.035E-06 / 41 AR 0.3724 / 41 O2 0.6276 / 42 N2  &
        1.031E-06 / 42 AR 0.3235 / 42 O2 0.6765 / 43 N2  &
        1.026E-06 / 43 AR 0.2784 / 43 O2 0.7216 / 44 N2  &
        1.022E-06 / 44 AR 0.2383 / 44 O2 0.7617 / 45 N2  &
        1.017E-06 / 45 AR 0.204 / 45 O2 0.796 / 46 N2  &
        1.014E-06 / 46 AR 0.1758 / 46 O2 0.8242 / 47 N2  &
        1.01E-06 / 47 AR 0.1532 / 47 O2 0.8468 / 48 N2  &
        1.008E-06 / 48 AR 0.1353 / 48 O2 0.8647 / 49 N2  &
        1.005E-06 / 49 AR 0.1217 / 49 O2 0.8783 / 50 N2  &
        1.004E-06 / 50 AR 0.1114 / 50 O2 0.8886 / 51 N2  &
        1.002E-06 / 51 AR 0.1038 / 51 O2 0.8962 / 52 N2  &
        1.002E-06 / 52 AR 0.09819 / 52 O2 0.9018 / 53 N2  &
        1.001E-06 / 53 AR 0.09408 / 53 O2 0.9059 / 54 N2  &
        1E-06 / 54 AR 0.09109 / 54 O2 0.9089 / 55 N2  &
        1E-06 / 55 AR 0.08892 / 55 O2 0.9111 / 56 N2  &
        1E-06 / 56 AR 0.08736 / 56 O2 0.9126 / 57 N2  &
        9.999E-07 / 57 AR 0.08624 / 57 O2 0.9138 / 58 N2  &
        9.999E-07 / 58 AR 0.08543 / 58 O2 0.9146 / 59 N2  &
        9.999E-07 / 59 AR 0.08486 / 59 O2 0.9151 / 60 N2  &
        9.999E-07 / 60 AR 0.08445 / 60 O2 0.9155 / 61 N2  &
        1E-06 / 61 AR 0.08417 / 61 O2 0.9158 / 62 N2  &
        1E-06 / 62 AR 0.08397 / 62 O2 0.916 / 63 N2  &
        1E-06 / 63 AR 0.08384 / 63 O2 0.9162 / 64 N2  &
        1E-06 / 64 AR 0.08375 / 64 O2 0.9163 / 65 N2  &
        1E-06 / 65 AR 0.08369 / 65 O2 0.9163 / 66 N2  &
        1E-06 / 66 AR 0.08366 / 66 O2 0.9163 / 67 N2  &
        1.001E-06 / 67 AR 0.08364 / 67 O2 0.9164 / 68 N2  &
        1.001E-06 / 68 AR 0.08364 / 68 O2 0.9164 / 69 N2  &
        1.001E-06 / 69 AR 0.08365 / 69 O2 0.9164 / 70 N2  &
        1.001E-06 / 70 AR 0.08366 / 70 O2 0.9163 / 71 N2  &
        1.001E-06 / 71 AR 0.08368 / 71 O2 0.9163 / 72 N2  &
        1.001E-06 / 72 AR 0.0837 / 72 O2 0.9163 / 73 N2  &
        1.001E-06 / 73 AR 0.08372 / 73 O2 0.9163 / 74 N2  &
        1.001E-06 / 74 AR 0.08375 / 74 O2 0.9162 / 75 N2  &
        1.001E-06 / 75 AR 0.08378 / 75 O2 0.9162 / 76 N2  &
        1.001E-06 / 76 AR 0.0838 / 76 O2 0.9162 / 77 N2  &
        1.002E-06 / 77 AR 0.08383 / 77 O2 0.9162 / 78 N2  &
        1.002E-06 / 78 AR 0.08386 / 78 O2 0.9161 / 79 N2  &
        1.002E-06 / 79 AR 0.08389 / 79 O2 0.9161 / 80 N2  &
        1.002E-06 / 80 AR 0.08392 / 80 O2 0.9161 / 81 N2  &
        1.002E-06 / 81 AR 0.08395 / 81 O2 0.9161 / 82 N2  &
        1.002E-06 / 82 AR 0.08397 / 82 O2 0.916 / 83 N2  &
        1.002E-06 / 83 AR 0.084 / 83 O2 0.916 / 84 N2  &
        1.002E-06 / 84 AR 0.08403 / 84 O2 0.916 / 85 N2  &
        1.002E-06 / 85 AR 0.08406 / 85 O2 0.9159 

BLOCK HPCOL RADFRAC 
    PARAM NSTAGE=62 ALGORITHM=STANDARD MAXOL=100 TOLOL=1E-007  &
        DAMPING=NONE 
    PARAM2 
    COL-CONFIG CONDENSER=TOTAL REBOILER=NONE 
    FEEDS 109 51 / GASAIRX 62 ON-STAGE 
    PRODUCTS 11 1 L / 5 62 L 
    P-SPEC 1 82. 
    COL-SPECS D:F=0.61338 DP-COL=3. 
    STAGE-EFF 2 1. / 3 0.99 / 38 0.99 / 39 1. / 40  &
        0.97 / 48 0.97 / 49 1. 
    T-EST 1 -284.1 / 2 -284.1 / 3 -284.1 / 4 -284.1 / 5  &
        -284. / 6 -284. / 7 -284. / 8 -284. / 9 -284. /  &
        10 -283.9 / 11 -283.9 / 12 -283.9 / 13 -283.9 /  &
        14 -283.9 / 15 -283.9 / 16 -283.8 / 17 -283.8 /  &
        18 -283.8 / 19 -283.8 / 20 -283.8 / 21 -283.7 /  &
        22 -283.7 / 23 -283.7 / 24 -283.7 / 25 -283.6 /  &
        26 -283.6 / 27 -283.6 / 28 -283.6 / 29 -283.5 /  &
        30 -283.5 / 31 -283.5 / 32 -283.4 / 33 -283.4 /  &
        34 -283.3 / 35 -283.3 / 36 -283.2 / 37 -283.1 /  &
        38 -283. / 39 -282.9 / 40 -282.8 / 41 -282.7 /  &
        42 -282.6 / 43 -282.4 / 44 -282.2 / 45 -281.9 /  &
        46 -281.7 / 47 -281.4 / 48 -281.1 / 49 -280.8 /  &
        50 -280.4 / 51 -280. / 52 -279.8 / 53 -279.5 /  &
        54 -279.2 / 55 -278.8 / 56 -278.4 / 57 -277.8 /  &
        58 -277.3 / 59 -276.7 / 60 -276.1 / 61 -276.1 /  &
        62 -276. 
    L-EST 1 7030. / 2 3822. / 3 3822. / 4 3822. / 5  &
        3822. / 6 3822. / 7 3822. / 8 3821. / 9 3821. /  &
        10 3821. / 11 3821. / 12 3821. / 13 3820. / 14  &
        3820. / 15 3820. / 16 3820. / 17 3819. / 18  &
        3819. / 19 3819. / 20 3818. / 21 3818. / 22  &
        3817. / 23 3817. / 24 3816. / 25 3815. / 26  &
        3815. / 27 3814. / 28 3813. / 29 3812. / 30  &
        3810. / 31 3809. / 32 3807. / 33 3805. / 34  &
        3802. / 35 3799. / 36 3795. / 37 3791. / 38  &
        3786. / 39 3779. / 40 3772. / 41 3763. / 42  &
        3753. / 43 3741. / 44 3728. / 45 3713. / 46  &
        3696. / 47 3677. / 48 3657. / 49 3635. / 50  &
        3612. / 51 4573. / 52 4558. / 53 4539. / 54  &
        4516. / 55 4490. / 56 4461. / 57 4428. / 58  &
        4395. / 59 4361. / 60 4296. / 61 4296. / 62  &
        4219. 
    V-EST 1 0. / 2 6942. / 3 6942. / 4 6942. / 5 6942. / &
        6 6941. / 7 6941. / 8 6941. / 9 6941. / 10  &
        6941. / 11 6941. / 12 6941. / 13 6940. / 14  &
        6940. / 15 6940. / 16 6940. / 17 6939. / 18  &
        6939. / 19 6939. / 20 6938. / 21 6938. / 22  &
        6937. / 23 6937. / 24 6936. / 25 6936. / 26  &
        6935. / 27 6934. / 28 6934. / 29 6933. / 30  &
        6931. / 31 6930. / 32 6928. / 33 6927. / 34  &
        6924. / 35 6922. / 36 6919. / 37 6915. / 38  &
        6911. / 39 6905. / 40 6899. / 41 6892. / 42  &
        6883. / 43 6873. / 44 6861. / 45 6848. / 46  &
        6832. / 47 6815. / 48 6797. / 49 6776. / 50  &
        6754. / 51 6705. / 52 6692. / 53 6677. / 54  &
        6657. / 55 6635. / 56 6609. / 57 6579. / 58  &
        6547. / 59 6514. / 60 6479. / 61 76.98 / 62  &
        77.26 
    X-EST 1 N2 0.9996 / 1 AR 0.0003775 / 1 O2 6E-07 /  &
        51 N2 0.8044 / 51 AR 0.01866 / 51 O2 0.1769 / 61  &
        N2 0.6229 / 61 AR 0.01586 / 61 O2 0.3613 / 62 N2  &
        0.6197 / 62 AR 0.01595 / 62 O2 0.3643 
    Y-EST 1 N2 0.9998 / 1 AR 0.0001997 / 1 O2 2.579E-07 /  &
        51 N2 0.9048 / 51 AR 0.01104 / 51 O2 0.08412 /  &
        61 N2 0.7973 / 61 AR 0.01065 / 61 O2 0.192 / 62  &
        N2 0.7952 / 62 AR 0.01074 / 62 O2 0.1941 
    SPEC 1 MOLE-FRAC 6E-07 COMPS=O2 STREAMS=11  &
        SPEC-DESCRIP="Mole purity, 6E-07, PRODUCT" 
    VARY 1 D:F 0.1 0.99 0.1 

BLOCK LPCOL RADFRAC 
    PARAM NSTAGE=81 ALGORITHM=NEWTON MAXOL=200 MAXIL=50  &
        TOLOL=1E-007 ILMETH=NEWTON FMINFAC=1E-030 DSMETH=SIMULT  &
        DAMPING=MEDIUM 
    PARAM2 
    COL-CONFIG CONDENSER=NONE REBOILER=KETTLE 
    FEEDS LPAIRX 10 / CLOXX 14 / 80 1 / 90X 34 / LAIR2  &
        9 
    PRODUCTS 130 1 V / 89 34 V MOLE-FLOW=2355.3 / 71 81  &
        L / 140 7 V MOLE-FLOW=5245.85 
    P-SPEC 1 18. 
    COL-SPECS B:F=0.156703 DP-COL=1. 
    STAGE-EFF 1 1. / 2 0.91 / 20 0.91 / 21 1. / 22  &
        0.92 / 37 0.92 / 38 1. / 39 0.93 / 48 0.93 /  &
        49 1. / 50 0.94 / 77 0.94 / 78 1. / 79 0.95 /  &
        80 0.95 / 81 1. 
    T-EST 1 -315.1 / 2 -314.9 / 3 -314.7 / 4 -314.3 / 5  &
        -313.7 / 6 -312.6 / 7 -310.7 / 8 -309.6 / 9  &
        -308.9 / 10 -307.6 / 11 -306.4 / 12 -305.4 / 13  &
        -304.6 / 14 -303.2 / 15 -300.7 / 16 -297.7 / 17  &
        -295.1 / 18 -293.2 / 19 -292. / 20 -291.3 / 21  &
        -290.9 / 22 -290.7 / 23 -290.5 / 24 -290.4 / 25  &
        -290.3 / 26 -290.2 / 27 -290.1 / 28 -290. / 29  &
        -289.9 / 30 -289.8 / 31 -289.7 / 32 -289.6 / 33  &
        -289.4 / 34 -289.3 / 35 -289.2 / 36 -289.1 / 37  &
        -289. / 38 -288.9 / 39 -288.8 / 40 -288.7 / 41  &
        -288.6 / 42 -288.5 / 43 -288.4 / 44 -288.3 / 45  &
        -288.2 / 46 -288.1 / 47 -288. / 48 -287.9 / 49  &
        -287.8 / 50 -287.7 / 51 -287.7 / 52 -287.6 / 53  &
        -287.5 / 54 -287.4 / 55 -287.3 / 56 -287.2 / 57  &
        -287.2 / 58 -287.1 / 59 -287. / 60 -286.9 / 61  &
        -286.8 / 62 -286.8 / 63 -286.7 / 64 -286.6 / 65  &
        -286.5 / 66 -286.4 / 67 -286.4 / 68 -286.3 / 69  &
        -286.2 / 70 -286.2 / 71 -286.1 / 72 -286. / 73  &
        -285.9 / 74 -285.9 / 75 -285.8 / 76 -285.7 / 77  &
        -285.7 / 78 -285.6 / 79 -285.5 / 80 -285.4 / 81  &
        -285.4 
    L-EST 1 2007. / 2 2004. / 3 1997. / 4 1983. / 5  &
        1959. / 6 1917. / 7 1852. / 8 1823. / 9 3571. /  &
        10 3516. / 11 3470. / 12 3436. / 13 3414. / 14  &
        5318. / 15 5239. / 16 5174. / 17 5134. / 18  &
        5114. / 19 5105. / 20 5101. / 21 5100. / 22  &
        5100. / 23 5100. / 24 5101. / 25 5102. / 26  &
        5103. / 27 5104. / 28 5104. / 29 5105. / 30  &
        5105. / 31 5106. / 32 5106. / 33 5106. / 34  &
        6682. / 35 6682. / 36 6682. / 37 6683. / 38  &
        6683. / 39 6683. / 40 6684. / 41 6684. / 42  &
        6685. / 43 6686. / 44 6686. / 45 6687. / 46  &
        6688. / 47 6689. / 48 6689. / 49 6690. / 50  &
        6691. / 51 6692. / 52 6693. / 53 6694. / 54  &
        6695. / 55 6697. / 56 6698. / 57 6699. / 58  &
        6700. / 59 6701. / 60 6703. / 61 6704. / 62  &
        6705. / 63 6707. / 64 6708. / 65 6709. / 66  &
        6711. / 67 6712. / 68 6714. / 69 6715. / 70  &
        6717. / 71 6718. / 72 6719. / 73 6721. / 74  &
        6722. / 75 6724. / 76 6725. / 77 6727. / 78  &
        6728. / 79 6730. / 80 6731. / 81 1799. 
    V-EST 1 3130. / 2 3108. / 3 3105. / 4 3098. / 5  &
        3084. / 6 3060. / 7 8055. / 8 7990. / 9 7368. /  &
        10 5946. / 11 5891. / 12 5846. / 13 5811. / 14  &
        3546. / 15 3473. / 16 3395. / 17 3330. / 18  &
        3290. / 19 3270. / 20 3261. / 21 3257. / 22  &
        3256. / 23 3256. / 24 3256. / 25 3257. / 26  &
        3258. / 27 3259. / 28 3259. / 29 3260. / 30  &
        3261. / 31 3261. / 32 3262. / 33 3262. / 34  &
        4883. / 35 4882. / 36 4883. / 37 4883. / 38  &
        4883. / 39 4884. / 40 4884. / 41 4885. / 42  &
        4885. / 43 4886. / 44 4886. / 45 4887. / 46  &
        4888. / 47 4889. / 48 4889. / 49 4890. / 50  &
        4891. / 51 4892. / 52 4893. / 53 4894. / 54  &
        4895. / 55 4896. / 56 4897. / 57 4899. / 58  &
        4900. / 59 4901. / 60 4902. / 61 4904. / 62  &
        4905. / 63 4906. / 64 4908. / 65 4909. / 66  &
        4910. / 67 4912. / 68 4913. / 69 4915. / 70  &
        4916. / 71 4917. / 72 4919. / 73 4920. / 74  &
        4922. / 75 4923. / 76 4925. / 77 4926. / 78  &
        4928. / 79 4929. / 80 4931. / 81 4932. 
    X-EST 1 N2 0.9957 / 1 AR 0.001485 / 1 O2 0.002862 /  &
        2 N2 0.9889 / 2 AR 0.002949 / 2 O2 0.00814 / 3  &
        N2 0.9762 / 3 AR 0.005104 / 3 O2 0.0187 / 4 N2  &
        0.9524 / 4 AR 0.008191 / 4 O2 0.03942 / 5 N2  &
        0.909 / 5 AR 0.01237 / 5 O2 0.07863 / 6 N2  &
        0.8346 / 6 AR 0.0174 / 6 O2 0.148 / 7 N2 0.7119 /  &
        7 AR 0.02232 / 7 O2 0.2658 / 8 N2 0.6481 / 8 AR  &
        0.02322 / 8 O2 0.3286 / 9 N2 0.615 / 9 AR 0.0233 / &
        9 O2 0.3617 / 10 N2 0.5488 / 10 AR 0.02928 / 10  &
        O2 0.4219 / 11 N2 0.4899 / 11 AR 0.03315 / 11 O2  &
        0.4769 / 12 N2 0.4433 / 12 AR 0.03484 / 12 O2  &
        0.5219 / 13 N2 0.4097 / 13 AR 0.03483 / 13 O2  &
        0.5555 / 14 N2 0.3544 / 14 AR 0.03981 / 14 O2  &
        0.6058 / 15 N2 0.2606 / 15 AR 0.05307 / 15 O2  &
        0.6863 / 16 N2 0.1685 / 16 AR 0.06598 / 16 O2  &
        0.7655 / 17 N2 0.09749 / 17 AR 0.07575 / 17 O2  &
        0.8268 / 18 N2 0.05223 / 18 AR 0.08172 / 18 O2  &
        0.8661 / 19 N2 0.02673 / 19 AR 0.08475 / 19 O2  &
        0.8885 / 20 N2 0.01335 / 20 AR 0.08595 / 20 O2  &
        0.9007 / 21 N2 0.006266 / 21 AR 0.08605 / 21 O2  &
        0.9077 / 22 N2 0.003054 / 22 AR 0.08557 / 22 O2  &
        0.9114 / 23 N2 0.001484 / 23 AR 0.08472 / 23 O2  &
        0.9138 / 24 N2 0.0007203 / 24 AR 0.08362 / 24 O2  &
        0.9157 / 25 N2 0.0003493 / 25 AR 0.0823 / 25 O2  &
        0.9174 / 26 N2 0.0001693 / 26 AR 0.08077 / 26 O2  &
        0.9191 / 27 N2 8.201E-05 / 27 AR 0.07901 / 27 O2  &
        0.9209 / 28 N2 3.966E-05 / 28 AR 0.07702 / 28 O2  &
        0.9229 / 29 N2 1.912E-05 / 29 AR 0.07476 / 29 O2  &
        0.9252 / 30 N2 9.162E-06 / 30 AR 0.0722 / 30 O2  &
        0.9278 / 31 N2 4.335E-06 / 31 AR 0.06932 / 31 O2  &
        0.9307 / 32 N2 1.997E-06 / 32 AR 0.06608 / 32 O2  &
        0.9339 / 33 N2 8.646E-07 / 33 AR 0.06245 / 33 O2  &
        0.9375 / 34 N2 3.099E-07 / 34 AR 0.05828 / 34 O2  &
        0.9417 / 35 N2 1.313E-07 / 35 AR 0.05513 / 35 O2  &
        0.9449 / 36 N2 5.561E-08 / 36 AR 0.05205 / 36 O2  &
        0.9479 / 37 N2 2.353E-08 / 37 AR 0.04906 / 37 O2  &
        0.9509 / 38 N2 9.476E-09 / 38 AR 0.04591 / 38 O2  &
        0.9541 / 39 N2 3.98E-09 / 39 AR 0.04308 / 39 O2  &
        0.9569 / 40 N2 1.671E-09 / 40 AR 0.04035 / 40 O2  &
        0.9597 / 41 N2 7.009E-10 / 41 AR 0.03773 / 41 O2  &
        0.9623 / 42 N2 2.939E-10 / 42 AR 0.03523 / 42 O2  &
        0.9648 / 43 N2 1.232E-10 / 43 AR 0.03284 / 43 O2  &
        0.9672 / 44 N2 5.163E-11 / 44 AR 0.03056 / 44 O2  &
        0.9694 / 45 N2 2.163E-11 / 45 AR 0.02841 / 45 O2  &
        0.9716 / 46 N2 9.059E-12 / 46 AR 0.02636 / 46 O2  &
        0.9736 / 47 N2 3.794E-12 / 47 AR 0.02444 / 47 O2  &
        0.9756 / 48 N2 1.588E-12 / 48 AR 0.02262 / 48 O2  &
        0.9774 / 49 N2 6.371E-13 / 49 AR 0.02079 / 49 O2  &
        0.9792 / 50 N2 2.651E-13 / 50 AR 0.01918 / 50 O2  &
        0.9808 / 51 N2 1.103E-13 / 51 AR 0.01767 / 51 O2  &
        0.9823 / 52 N2 4.588E-14 / 52 AR 0.01626 / 52 O2  &
        0.9837 / 53 N2 1.909E-14 / 53 AR 0.01495 / 53 O2  &
        0.9851 / 54 N2 7.946E-15 / 54 AR 0.01373 / 54 O2  &
        0.9863 / 55 N2 3.308E-15 / 55 AR 0.01259 / 55 O2  &
        0.9874 / 56 N2 1.377E-15 / 56 AR 0.01153 / 56 O2  &
        0.9885 / 57 N2 5.737E-16 / 57 AR 0.01055 / 57 O2  &
        0.9895 / 58 N2 2.39E-16 / 58 AR 0.009639 / 58 O2  &
        0.9904 / 59 N2 9.961E-17 / 59 AR 0.008796 / 59 O2  &
        0.9912 / 60 N2 4.153E-17 / 60 AR 0.008016 / 60 O2  &
        0.992 / 61 N2 1.732E-17 / 61 AR 0.007296 / 61 O2  &
        0.9927 / 62 N2 7.229E-18 / 62 AR 0.006629 / 62 O2  &
        0.9934 / 63 N2 3.018E-18 / 63 AR 0.006014 / 63 O2  &
        0.994 / 64 N2 1.261E-18 / 64 AR 0.005446 / 64 O2  &
        0.9946 / 65 N2 5.268E-19 / 65 AR 0.004922 / 65 O2  &
        0.9951 / 66 N2 2.203E-19 / 66 AR 0.004439 / 66 O2  &
        0.9956 / 67 N2 9.214E-20 / 67 AR 0.003994 / 67 O2  &
        0.996 / 68 N2 3.857E-20 / 68 AR 0.003583 / 68 O2  &
        0.9964 / 69 N2 1.615E-20 / 69 AR 0.003205 / 69 O2  &
        0.9968 / 70 N2 6.769E-21 / 70 AR 0.002856 / 70 O2  &
        0.9971 / 71 N2 2.838E-21 / 71 AR 0.002535 / 71 O2  &
        0.9975 / 72 N2 1.191E-21 / 72 AR 0.002239 / 72 O2  &
        0.9978 / 73 N2 4.999E-22 / 73 AR 0.001967 / 73 O2  &
        0.998 / 74 N2 2.099E-22 / 74 AR 0.001716 / 74 O2  &
        0.9983 / 75 N2 8.821E-23 / 75 AR 0.001485 / 75 O2  &
        0.9985 / 76 N2 3.706E-23 / 76 AR 0.001272 / 76 O2  &
        0.9987 / 77 N2 1.556E-23 / 77 AR 0.001076 / 77 O2  &
        0.9989 / 78 N2 6.278E-24 / 78 AR 0.0008852 / 78  &
        O2 0.9991 / 79 N2 2.589E-24 / 79 AR 0.0007181 /  &
        79 O2 0.9993 / 80 N2 1.044E-24 / 80 AR 0.0005643 /  &
        80 O2 0.9994 / 81 N2 3.833E-25 / 81 AR 0.0004159 /  &
        81 O2 0.9996 
    Y-EST 1 N2 0.9986 / 1 AR 0.000605 / 1 O2 0.0008159 /  &
        2 N2 0.996 / 2 AR 0.0013 / 2 O2 0.002669 / 3 N2  &
        0.9917 / 3 AR 0.002244 / 3 O2 0.006075 / 4 N2  &
        0.9835 / 4 AR 0.003632 / 4 O2 0.01288 / 5 N2  &
        0.9682 / 5 AR 0.00561 / 5 O2 0.02617 / 6 N2  &
        0.9406 / 6 AR 0.008264 / 6 O2 0.05117 / 7 N2  &
        0.8938 / 7 AR 0.01141 / 7 O2 0.09483 / 8 N2  &
        0.8658 / 8 AR 0.0125 / 8 O2 0.1217 / 9 N2 0.8463 / &
        9 AR 0.01325 / 9 O2 0.1404 / 10 N2 0.8091 / 10  &
        AR 0.01776 / 10 O2 0.1732 / 11 N2 0.7714 / 11 AR  &
        0.02128 / 11 O2 0.2074 / 12 N2 0.7381 / 12 AR  &
        0.02352 / 12 O2 0.2383 / 13 N2 0.7121 / 13 AR  &
        0.02446 / 13 O2 0.2635 / 14 N2 0.6525 / 14 AR  &
        0.03172 / 14 O2 0.3158 / 15 N2 0.5425 / 15 AR  &
        0.04803 / 15 O2 0.4094 / 16 N2 0.4022 / 16 AR  &
        0.06868 / 16 O2 0.5291 / 17 N2 0.2618 / 17 AR  &
        0.08904 / 17 O2 0.6492 / 18 N2 0.1521 / 18 AR  &
        0.1046 / 18 O2 0.7433 / 19 N2 0.08168 / 19 AR  &
        0.1141 / 19 O2 0.8042 / 20 N2 0.04185 / 20 AR  &
        0.1189 / 20 O2 0.8392 / 21 N2 0.02091 / 21 AR  &
        0.1208 / 21 O2 0.8583 / 22 N2 0.009815 / 22 AR  &
        0.121 / 22 O2 0.8692 / 23 N2 0.004783 / 23 AR  &
        0.1203 / 23 O2 0.875 / 24 N2 0.002324 / 24 AR  &
        0.1189 / 24 O2 0.8788 / 25 N2 0.001128 / 25 AR  &
        0.1172 / 25 O2 0.8817 / 26 N2 0.0005467 / 26 AR  &
        0.1151 / 26 O2 0.8843 / 27 N2 0.0002648 / 27 AR  &
        0.1127 / 27 O2 0.887 / 28 N2 0.0001281 / 28 AR  &
        0.11 / 28 O2 0.8899 / 29 N2 6.174E-05 / 29 AR  &
        0.1068 / 29 O2 0.8931 / 30 N2 2.958E-05 / 30 AR  &
        0.1033 / 30 O2 0.8967 / 31 N2 1.399E-05 / 31 AR  &
        0.09927 / 31 O2 0.9007 / 32 N2 6.433E-06 / 32 AR  &
        0.09475 / 32 O2 0.9052 / 33 N2 2.772E-06 / 33 AR  &
        0.08968 / 33 O2 0.9103 / 34 N2 1E-06 / 34 AR  &
        0.084 / 34 O2 0.916 / 35 N2 4.241E-07 / 35 AR  &
        0.0796 / 35 O2 0.9204 / 36 N2 1.797E-07 / 36 AR  &
        0.07529 / 36 O2 0.9247 / 37 N2 7.61E-08 / 37 AR  &
        0.07108 / 37 O2 0.9289 / 38 N2 3.22E-08 / 38 AR  &
        0.06698 / 38 O2 0.933 / 39 N2 1.297E-08 / 39 AR  &
        0.06267 / 39 O2 0.9373 / 40 N2 5.446E-09 / 40 AR  &
        0.05879 / 40 O2 0.9412 / 41 N2 2.286E-09 / 41 AR  &
        0.05506 / 41 O2 0.9449 / 42 N2 9.59E-10 / 42 AR  &
        0.05147 / 42 O2 0.9485 / 43 N2 4.022E-10 / 43 AR  &
        0.04804 / 43 O2 0.952 / 44 N2 1.686E-10 / 44 AR  &
        0.04477 / 44 O2 0.9552 / 45 N2 7.064E-11 / 45 AR  &
        0.04166 / 45 O2 0.9583 / 46 N2 2.959E-11 / 46 AR  &
        0.03871 / 46 O2 0.9613 / 47 N2 1.239E-11 / 47 AR  &
        0.03591 / 47 O2 0.9641 / 48 N2 5.19E-12 / 48 AR  &
        0.03327 / 48 O2 0.9667 / 49 N2 2.173E-12 / 49 AR  &
        0.03079 / 49 O2 0.9692 / 50 N2 8.715E-13 / 50 AR  &
        0.02828 / 50 O2 0.9717 / 51 N2 3.625E-13 / 51 AR  &
        0.02608 / 51 O2 0.9739 / 52 N2 1.508E-13 / 52 AR  &
        0.02402 / 52 O2 0.976 / 53 N2 6.275E-14 / 53 AR  &
        0.02209 / 53 O2 0.9779 / 54 N2 2.611E-14 / 54 AR  &
        0.02029 / 54 O2 0.9797 / 55 N2 1.087E-14 / 55 AR  &
        0.01862 / 55 O2 0.9814 / 56 N2 4.523E-15 / 56 AR  &
        0.01706 / 56 O2 0.9829 / 57 N2 1.883E-15 / 57 AR  &
        0.01561 / 57 O2 0.9844 / 58 N2 7.843E-16 / 58 AR  &
        0.01427 / 58 O2 0.9857 / 59 N2 3.267E-16 / 59 AR  &
        0.01302 / 59 O2 0.987 / 60 N2 1.362E-16 / 60 AR  &
        0.01187 / 60 O2 0.9881 / 61 N2 5.677E-17 / 61 AR  &
        0.01081 / 61 O2 0.9892 / 62 N2 2.368E-17 / 62 AR  &
        0.009819 / 62 O2 0.9902 / 63 N2 9.88E-18 / 63 AR  &
        0.008908 / 63 O2 0.9911 / 64 N2 4.124E-18 / 64 AR  &
        0.008066 / 64 O2 0.9919 / 65 N2 1.723E-18 / 65 AR  &
        0.00729 / 65 O2 0.9927 / 66 N2 7.198E-19 / 66 AR  &
        0.006573 / 66 O2 0.9934 / 67 N2 3.009E-19 / 67 AR  &
        0.005913 / 67 O2 0.9941 / 68 N2 1.259E-19 / 68 AR  &
        0.005304 / 68 O2 0.9947 / 69 N2 5.269E-20 / 69 AR  &
        0.004742 / 69 O2 0.9953 / 70 N2 2.206E-20 / 70 AR  &
        0.004225 / 70 O2 0.9958 / 71 N2 9.245E-21 / 71 AR  &
        0.003749 / 71 O2 0.9963 / 72 N2 3.876E-21 / 72 AR  &
        0.00331 / 72 O2 0.9967 / 73 N2 1.626E-21 / 73 AR  &
        0.002906 / 73 O2 0.9971 / 74 N2 6.825E-22 / 74 AR  &
        0.002534 / 74 O2 0.9975 / 75 N2 2.865E-22 / 75 AR  &
        0.002191 / 75 O2 0.9978 / 76 N2 1.203E-22 / 76 AR  &
        0.001876 / 76 O2 0.9981 / 77 N2 5.046E-23 / 77 AR  &
        0.001585 / 77 O2 0.9984 / 78 N2 2.11E-23 / 78 AR  &
        0.001317 / 78 O2 0.9987 / 79 N2 8.429E-24 / 79 AR  &
        0.001057 / 79 O2 0.9989 / 80 N2 3.394E-24 / 80 AR  &
        0.0008284 / 80 O2 0.9992 / 81 N2 1.285E-24 / 81  &
        AR 0.0006185 / 81 O2 0.9994 

BLOCK EXPDR1 COMPR 
    PARAM TYPE=ISENTROPIC PRES=19.5 NPHASE=2 SB-MAXIT=30  &
        SB-TOL=1E-07 MODEL-TYPE=TURBINE 
    PERFOR-PARAM CALC-SPEED=NO 

BLOCK EXPDR2 COMPR 
    PARAM TYPE=ISENTROPIC PRES=83.7 NPHASE=2 SB-MAXIT=30  &
        SB-TOL=1E-07 MODEL-TYPE=TURBINE 
    PERFOR-PARAM CALC-SPEED=NO 

BLOCK BOOSTER MCOMPR 
    PARAM NSTAGE=4 TYPE=ISENTROPIC PRES=1603. COMPR-NPHASE=2  &
        SB-MAXIT=30 SB-TOL=1E-07 
    FEEDS 304 1 
    PRODUCTS 400 4 
    COOLER-SPECS 1 TEMP=87.5 / 2 TEMP=87.5 / 3 TEMP=87.5 /  &
        4 TEMP=87.5 

BLOCK COMP3 MCOMPR 
    PARAM NSTAGE=1 TYPE=ISENTROPIC PRES=170. COMPR-NPHASE=2  &
        SB-MAXIT=30 SB-TOL=1E-07 
    FEEDS 302 1 
    PRODUCTS 305 1 
    COOLER-SPECS 1 TEMP=100. 

BLOCK MAC MCOMPR 
    PARAM NSTAGE=4 TYPE=ISENTROPIC PRES=87. COMPR-NPHASE=2  &
        SB-MAXIT=30 SB-TOL=1E-07 
    FEEDS AIR 1 
    PRODUCTS 300 4 
    COOLER-SPECS 1 TEMP=100. / 2 TEMP=100. / 3 TEMP=100. /  &
        4 TEMP=100. 

BLOCK VALVE1 VALVE 
    PARAM P-DROP=0. 

EO-CONV-OPTI 

CALCULATOR INPUTS 
    DEFINE GANMOLEL PARAMETER 99 
    DEFINE GANMOLEU PARAMETER 100 
C Set GAN flow from plant bounds (lbmol/hr) 
F     GANMOLEL=3534.0 
F     GANMOLEU=1.07*3534.0 
F       
 
 
 
 
 
    WRITE-VARS GANMOLEL GANMOLEU 
    EXECUTE FIRST 

CONSTRAINT CL 
    DEFINE DHCOND BLOCK-VAR BLOCK=ARGCOL VARIABLE=COND-DUTY  &
        SENTENCE=RESULTS UOM="Btu/hr" 
    DEFINE Q BLOCK-VAR BLOCK=DRUM2 VARIABLE=DUTY SENTENCE=PARAM  &
        UOM="Btu/hr" 
    SPEC "DABS(DHCOND)/Q" GE "1.0" 
    TOL-SPEC "0.001" 

CONSTRAINT CU 
    DEFINE DHCOND BLOCK-VAR BLOCK=ARGCOL VARIABLE=COND-DUTY  &
        SENTENCE=RESULTS UOM="Btu/hr" 
    DEFINE Q BLOCK-VAR BLOCK=DRUM2 VARIABLE=DUTY SENTENCE=PARAM  &
        UOM="Btu/hr" 
    SPEC "DABS(DHCOND)/Q" LE "1.0" 
    TOL-SPEC "0.001" 

CONSTRAINT DTHX1 
    VECTOR-DEF DT PROFILE BLOCK=HX1 VARIABLE=DTBASE  &
        SENTENCE=BASE-PROFILE UOM="F" 
    PARAM VECTOR=YES 
    SPEC "DT" GE "0.25" 
    TOL-SPEC "0.001" 

CONSTRAINT DTHX2 
    VECTOR-DEF DT PROFILE BLOCK=HX2 VARIABLE=DTBASE  &
        SENTENCE=BASE-PROFILE UOM="F" 
    PARAM VECTOR=YES 
    SPEC "DT" GE "0.25" 
    TOL-SPEC "0.001" 

CONSTRAINT PURLAR 
    DEFINE YO160 MOLE-FRAC STREAM=160 SUBSTREAM=MIXED  &
        COMPONENT=O2 
    SPEC "YO160*100.0/2.0" EQ "1" 
    TOL-SPEC "0.001" 

CONSTRAINT RCDT 
    DEFINE TCOND STREAM-VAR STREAM=11 SUBSTREAM=MIXED  &
        VARIABLE=TEMP UOM="F" 
    DEFINE TREB STREAM-VAR STREAM=71 SUBSTREAM=MIXED  &
        VARIABLE=TEMP UOM="F" 
    SPEC "(TCOND-TREB)/1.27" GE "1.0" 
    TOL-SPEC "0.001" 

CONSTRAINT RCDT2 
    DEFINE TCOND STREAM-VAR STREAM=160 SUBSTREAM=MIXED  &
        VARIABLE=TEMP UOM="F" 
    DEFINE TREB STREAM-VAR STREAM=15 SUBSTREAM=MIXED  &
        VARIABLE=TEMP UOM="F" 
    DEFINE DT LOCAL-PARAM 
F     DT = TCOND-TREB 
F             
    SPEC "(TCOND-TREB)/3.88" GE "1.0" 
    TOL-SPEC "0.001" 

CONSTRAINT RCL 
    DEFINE DHCOND BLOCK-VAR BLOCK=HPCOL VARIABLE=COND-DUTY  &
        SENTENCE=RESULTS UOM="Btu/hr" 
    DEFINE QREB BLOCK-VAR BLOCK=LPCOL VARIABLE=REB-DUTY  &
        SENTENCE=RESULTS UOM="Btu/hr" 
    SPEC "DABS(DHCOND)/QREB" GE "1.0" 
    TOL-SPEC "0.001" 

CONSTRAINT RCU 
    DEFINE DHCOND BLOCK-VAR BLOCK=HPCOL VARIABLE=COND-DUTY  &
        SENTENCE=RESULTS UOM="Btu/hr" 
    DEFINE QREB BLOCK-VAR BLOCK=LPCOL VARIABLE=REB-DUTY  &
        SENTENCE=RESULTS UOM="Btu/hr" 
    SPEC "DABS(DHCOND)/QREB" LE "1.0" 
    TOL-SPEC "0.001" 

CONSTRAINT S-29ARL 
    DEFINE F MOLE-FLOW STREAM=29 SUBSTREAM=MIXED COMPONENT=AR  &
        UOM="lbmol/hr" 
    DEFINE FX MOLE-FLOW STREAM=29X SUBSTREAM=MIXED COMPONENT=AR  &
        UOM="lbmol/hr" 
    SPEC "F/FX" GE "1.0" 
    TOL-SPEC "0.001" 

CONSTRAINT S-29ARU 
    DEFINE F MOLE-FLOW STREAM=29 SUBSTREAM=MIXED COMPONENT=AR  &
        UOM="lbmol/hr" 
    DEFINE FX MOLE-FLOW STREAM=29X SUBSTREAM=MIXED COMPONENT=AR  &
        UOM="lbmol/hr" 
    SPEC "F/FX" LE "1.0" 
    TOL-SPEC "0.001" 

CONSTRAINT S-29N2L 
    DEFINE F MOLE-FLOW STREAM=29 SUBSTREAM=MIXED COMPONENT=N2  &
        UOM="lbmol/hr" 
    DEFINE FX MOLE-FLOW STREAM=29X SUBSTREAM=MIXED COMPONENT=N2  &
        UOM="lbmol/hr" 
    SPEC "F/FX" GE "1.0" 
    TOL-SPEC "0.001" 

CONSTRAINT S-29N2U 
    DEFINE F MOLE-FLOW STREAM=29 SUBSTREAM=MIXED COMPONENT=N2  &
        UOM="lbmol/hr" 
    DEFINE FX MOLE-FLOW STREAM=29X SUBSTREAM=MIXED COMPONENT=N2  &
        UOM="lbmol/hr" 
    SPEC "F/FX" LE "1.0" 
    TOL-SPEC "0.001" 

CONSTRAINT S-29O2L 
    DEFINE F MOLE-FLOW STREAM=29 SUBSTREAM=MIXED COMPONENT=O2  &
        UOM="lbmol/hr" 
    DEFINE FX MOLE-FLOW STREAM=29X SUBSTREAM=MIXED COMPONENT=O2  &
        UOM="lbmol/hr" 
    SPEC "F/FX" GE "1.0" 
    TOL-SPEC "0.001" 

CONSTRAINT S-29O2U 
    DEFINE F MOLE-FLOW STREAM=29 SUBSTREAM=MIXED COMPONENT=O2  &
        UOM="lbmol/hr" 
    DEFINE FX MOLE-FLOW STREAM=29X SUBSTREAM=MIXED COMPONENT=O2  &
        UOM="lbmol/hr" 
    SPEC "F/FX" LE "1.0" 
    TOL-SPEC "0.001" 

CONSTRAINT S-90ARL 
    DEFINE F MOLE-FLOW STREAM=90 SUBSTREAM=MIXED COMPONENT=AR  &
        UOM="lbmol/hr" 
    DEFINE FX MOLE-FLOW STREAM=90X SUBSTREAM=MIXED COMPONENT=AR  &
        UOM="lbmol/hr" 
    SPEC "F/FX" GE "1.0" 
    TOL-SPEC "0.001" 

CONSTRAINT S-90ARU 
    DEFINE F MOLE-FLOW STREAM=90 SUBSTREAM=MIXED COMPONENT=AR  &
        UOM="lbmol/hr" 
    DEFINE FX MOLE-FLOW STREAM=90X SUBSTREAM=MIXED COMPONENT=AR  &
        UOM="lbmol/hr" 
    SPEC "F/FX" LE "1.0" 
    TOL-SPEC "0.001" 

CONSTRAINT S-90N2L 
    DEFINE F MOLE-FLOW STREAM=90 SUBSTREAM=MIXED COMPONENT=N2  &
        UOM="lbmol/hr" 
    DEFINE FX MOLE-FLOW STREAM=90X SUBSTREAM=MIXED COMPONENT=N2  &
        UOM="lbmol/hr" 
    SPEC "F/FX" GE "1.0" 
    TOL-SPEC "0.001" 

CONSTRAINT S-90N2U 
    DEFINE F MOLE-FLOW STREAM=90 SUBSTREAM=MIXED COMPONENT=N2  &
        UOM="lbmol/hr" 
    DEFINE FX MOLE-FLOW STREAM=90X SUBSTREAM=MIXED COMPONENT=N2  &
        UOM="lbmol/hr" 
    SPEC "F/FX" LE "1.0" 
    TOL-SPEC "0.001" 

CONSTRAINT S-90O2L 
    DEFINE F MOLE-FLOW STREAM=90 SUBSTREAM=MIXED COMPONENT=O2  &
        UOM="lbmol/hr" 
    DEFINE FX MOLE-FLOW STREAM=90X SUBSTREAM=MIXED COMPONENT=O2  &
        UOM="lbmol/hr" 
    SPEC "F/FX" GE "1.0" 
    TOL-SPEC "0.001" 

CONSTRAINT S-90O2U 
    DEFINE F MOLE-FLOW STREAM=90 SUBSTREAM=MIXED COMPONENT=O2  &
        UOM="lbmol/hr" 
    DEFINE FX MOLE-FLOW STREAM=90X SUBSTREAM=MIXED COMPONENT=O2  &
        UOM="lbmol/hr" 
    SPEC "F/FX" LE "1.0" 
    TOL-SPEC "0.001" 

CONSTRAINT S-1516AL 
    DEFINE F MOLE-FLOW STREAM=CLOX SUBSTREAM=MIXED COMPONENT=AR  &
        UOM="lbmol/hr" 
    DEFINE FX MOLE-FLOW STREAM=CLOXX SUBSTREAM=MIXED  &
        COMPONENT=AR UOM="lbmol/hr" 
    SPEC "F/FX" GE "1.0" 
    TOL-SPEC "0.001" 

CONSTRAINT S-1516AU 
    DEFINE F MOLE-FLOW STREAM=CLOX SUBSTREAM=MIXED COMPONENT=AR  &
        UOM="lbmol/hr" 
    DEFINE FX MOLE-FLOW STREAM=CLOXX SUBSTREAM=MIXED  &
        COMPONENT=AR UOM="lbmol/hr" 
    SPEC "F/FX" LE "1.0" 
    TOL-SPEC "0.001" 

CONSTRAINT S-1516NL 
    DEFINE F MOLE-FLOW STREAM=CLOX SUBSTREAM=MIXED COMPONENT=N2  &
        UOM="lbmol/hr" 
    DEFINE FX MOLE-FLOW STREAM=CLOXX SUBSTREAM=MIXED  &
        COMPONENT=N2 UOM="lbmol/hr" 
    SPEC "F/FX" GE "1.0" 
    TOL-SPEC "0.001" 

CONSTRAINT S-1516NU 
    DEFINE F MOLE-FLOW STREAM=CLOX SUBSTREAM=MIXED COMPONENT=N2  &
        UOM="lbmol/hr" 
    DEFINE FX MOLE-FLOW STREAM=CLOXX SUBSTREAM=MIXED  &
        COMPONENT=N2 UOM="lbmol/hr" 
    SPEC "F/FX" LE "1.0" 
    TOL-SPEC "0.001" 

CONSTRAINT S-1516OL 
    DEFINE F MOLE-FLOW STREAM=CLOX SUBSTREAM=MIXED COMPONENT=O2  &
        UOM="lbmol/hr" 
    DEFINE FX MOLE-FLOW STREAM=CLOXX SUBSTREAM=MIXED  &
        COMPONENT=O2 UOM="lbmol/hr" 
    SPEC "F/FX" GE "1.0" 
    TOL-SPEC "0.001" 

CONSTRAINT S-1516OU 
    DEFINE F MOLE-FLOW STREAM=CLOX SUBSTREAM=MIXED COMPONENT=O2  &
        UOM="lbmol/hr" 
    DEFINE FX MOLE-FLOW STREAM=CLOXX SUBSTREAM=MIXED  &
        COMPONENT=O2 UOM="lbmol/hr" 
    SPEC "F/FX" LE "1.0" 
    TOL-SPEC "0.001" 

CONSTRAINT S-LOXO2L 
    DEFINE X MOLE-FRAC STREAM=LOX SUBSTREAM=MIXED COMPONENT=O2 
    SPEC "X/(99.5/100.0)" GE "1.0" 
    TOL-SPEC "0.001" 

CONSTRAINT S-SAFO2L 
    DEFINE Y MOLE-FRAC STREAM=89 SUBSTREAM=MIXED COMPONENT=O2 
    SPEC "Y/(90.9/100.0)" GE "1.0" 
    TOL-SPEC "0.001" 

CONSTRAINT S-SAFO2U 
    DEFINE Y MOLE-FRAC STREAM=89 SUBSTREAM=MIXED COMPONENT=O2 
    SPEC "Y/(91.6/100.0)" LE "1.0" 
    TOL-SPEC "0.001" 

CONSTRAINT S-WSTO2U 
    DEFINE Y MOLE-FRAC STREAM=140 SUBSTREAM=MIXED COMPONENT=O2 
    SPEC "Y/(15.0/100.0)" LE "1.0" 
    TOL-SPEC "0.001" 

CONSTRAINT SF-GANL 
    DEFINE F STREAM-VAR STREAM=G SUBSTREAM=MIXED  &
        VARIABLE=MOLE-FLOW UOM="lbmol/hr" 
    DEFINE GANMOLEL PARAMETER 99 
    SPEC "F/GANMOLEL" GE "1.0" 
    TOL-SPEC "0.001" 

CONSTRAINT SF-GANU 
    DEFINE F STREAM-VAR STREAM=G SUBSTREAM=MIXED  &
        VARIABLE=MOLE-FLOW UOM="lbmol/hr" 
    DEFINE GANMOLEU PARAMETER 100 
    SPEC "F/GANMOLEU" LE "1.0" 
    TOL-SPEC "0.001" 

CONSTRAINT SF-LOX 
    DEFINE F STREAM-VAR STREAM=LOX SUBSTREAM=MIXED  &
        VARIABLE=MASS-FLOW UOM="lb/hr" 
    DEFINE ALOXTPD LOCAL-PARAM 
F     ALOXTPD = F/2000.0*24.0       
    SPEC "F/2000.0*24.0/789.105" EQ "1.0" 
    TOL-SPEC "0.001" 

CONSTRAINT SP-29L 
    DEFINE P STREAM-VAR STREAM=29 SUBSTREAM=MIXED VARIABLE=PRES  &
        UOM="psia" 
    DEFINE PX STREAM-VAR STREAM=29X SUBSTREAM=MIXED  &
        VARIABLE=PRES UOM="psia" 
    SPEC "P/PX" GE "1.0" 
    TOL-SPEC "0.001" 

CONSTRAINT SP-29U 
    DEFINE P STREAM-VAR STREAM=29 SUBSTREAM=MIXED VARIABLE=PRES  &
        UOM="psia" 
    DEFINE PX STREAM-VAR STREAM=29X SUBSTREAM=MIXED  &
        VARIABLE=PRES UOM="psia" 
    SPEC "P/PX" LE "1.0" 
    TOL-SPEC "0.001" 

CONSTRAINT SP-90L 
    DEFINE P STREAM-VAR STREAM=90 SUBSTREAM=MIXED VARIABLE=PRES  &
        UOM="psia" 
    DEFINE PX STREAM-VAR STREAM=90X SUBSTREAM=MIXED  &
        VARIABLE=PRES UOM="psia" 
    SPEC "P/PX" GE "1.0" 
    TOL-SPEC "0.001" 

CONSTRAINT SP-90U 
    DEFINE P STREAM-VAR STREAM=90 SUBSTREAM=MIXED VARIABLE=PRES  &
        UOM="psia" 
    DEFINE PX STREAM-VAR STREAM=90X SUBSTREAM=MIXED  &
        VARIABLE=PRES UOM="psia" 
    SPEC "P/PX" LE "1.0" 
    TOL-SPEC "0.001" 

CONSTRAINT SP-1516L 
    DEFINE P STREAM-VAR STREAM=CLOX SUBSTREAM=MIXED  &
        VARIABLE=PRES UOM="psia" 
    DEFINE PX STREAM-VAR STREAM=CLOXX SUBSTREAM=MIXED  &
        VARIABLE=PRES UOM="psia" 
    SPEC "P/PX" GE "1.0" 
    TOL-SPEC "0.001" 

CONSTRAINT SP-1516U 
    DEFINE P STREAM-VAR STREAM=CLOX SUBSTREAM=MIXED  &
        VARIABLE=PRES UOM="psia" 
    DEFINE PX STREAM-VAR STREAM=CLOXX SUBSTREAM=MIXED  &
        VARIABLE=PRES UOM="psia" 
    SPEC "P/PX" LE "1.0" 
    TOL-SPEC "0.001" 

CONSTRAINT ST-29L 
    DEFINE T STREAM-VAR STREAM=29 SUBSTREAM=MIXED VARIABLE=TEMP  &
        UOM="F" 
    DEFINE TX STREAM-VAR STREAM=29X SUBSTREAM=MIXED  &
        VARIABLE=TEMP UOM="F" 
    SPEC "T/TX" GE "1.0" 
    TOL-SPEC "0.001" 

CONSTRAINT ST-29U 
    DEFINE T STREAM-VAR STREAM=29 SUBSTREAM=MIXED VARIABLE=TEMP  &
        UOM="F" 
    DEFINE TX STREAM-VAR STREAM=29X SUBSTREAM=MIXED  &
        VARIABLE=TEMP UOM="F" 
    SPEC "T/TX" LE "1.0" 
    TOL-SPEC "0.001" 

CONSTRAINT ST-1516L 
    DEFINE T STREAM-VAR STREAM=CLOX SUBSTREAM=MIXED  &
        VARIABLE=TEMP UOM="F" 
    DEFINE TX STREAM-VAR STREAM=CLOXX SUBSTREAM=MIXED  &
        VARIABLE=TEMP UOM="F" 
    SPEC "T/TX" GE "1.0" 
    TOL-SPEC "0.001" 

CONSTRAINT ST-1516U 
    DEFINE T STREAM-VAR STREAM=CLOX SUBSTREAM=MIXED  &
        VARIABLE=TEMP UOM="F" 
    DEFINE TX STREAM-VAR STREAM=CLOXX SUBSTREAM=MIXED  &
        VARIABLE=TEMP UOM="F" 
    SPEC "T/TX" LE "1.0" 
    TOL-SPEC "0.001" 

OPTIMIZATION OBJ 
    DEFINE P STREAM-VAR STREAM=HPLAIRX SUBSTREAM=MIXED  &
        VARIABLE=PRES UOM="psia" 
    DEFINE F STREAM-VAR STREAM=LIN SUBSTREAM=MIXED  &
        VARIABLE=MOLE-FLOW UOM="lbmol/hr" 
    MINIMIZE "P" 
    CONSTRAINTS DTHX1 / RCL / RCU / CL / CU / DTHX2 /  &
        SP-29L / SP-29U / ST-29L / ST-29U / S-90ARL /  &
        S-90ARU / S-90O2L / S-90O2U / SP-90L / SP-90U /  &
        S-90N2L / S-90N2U / RCDT / RCDT2 / S-29ARL /  &
        S-29ARU / S-29N2L / S-29N2U / S-29O2L / S-29O2U /  &
        S-LOXO2L / S-WSTO2U / S-SAFO2L / S-SAFO2U / S-1516AL / &
        S-1516AU / S-1516NL / S-1516NU / S-1516OL / S-1516OU / &
        SP-1516L / SP-1516U / ST-1516L / ST-1516U / PURLAR /  &
        SF-LOX / SF-GANL / SF-GANU 
    VARY BLOCK-VAR BLOCK=DRUM2 VARIABLE=DUTY SENTENCE=PARAM UOM= &
        "Btu/hr" 
    LIMITS "750000" "8e6" STEP-SIZE=0.0001 MAX-STEP-SIZ=0.1 
    VARY MOLE-FLOW STREAM=CLOXX SUBSTREAM=MIXED COMPONENT=AR  &
        UOM="lbmol/hr" 
    LIMITS "3" "100" STEP-SIZE=0.0001 MAX-STEP-SIZ=0.1 
    VARY MOLE-FLOW STREAM=CLOXX SUBSTREAM=MIXED COMPONENT=N2  &
        UOM="lbmol/hr" 
    LIMITS "150" "3000" STEP-SIZE=0.0001 MAX-STEP-SIZ=0.1 
    VARY MOLE-FLOW STREAM=CLOXX SUBSTREAM=MIXED COMPONENT=O2  &
        UOM="lbmol/hr" 
    LIMITS "75" "2000" STEP-SIZE=0.0001 MAX-STEP-SIZ=0.1 
    VARY STREAM-VAR STREAM=CLOXX SUBSTREAM=MIXED VARIABLE=PRES  &
        UOM="psia" 
    LIMITS "5" "40" STEP-SIZE=0.0001 MAX-STEP-SIZ=0.1 
    VARY STREAM-VAR STREAM=CLOXX SUBSTREAM=MIXED VARIABLE=TEMP  &
        UOM="F" 
    LIMITS "-320" "-270" STEP-SIZE=0.0001 MAX-STEP-SIZ=0.1 
    VARY STREAM-VAR STREAM=29X SUBSTREAM=MIXED VARIABLE=TEMP  &
        UOM="F" 
    LIMITS "-320" "-270" STEP-SIZE=0.0001 MAX-STEP-SIZ=0.1 
    VARY STREAM-VAR STREAM=29X SUBSTREAM=MIXED VARIABLE=PRES  &
        UOM="psia" 
    LIMITS "50" "150" STEP-SIZE=0.0001 MAX-STEP-SIZ=0.1 
    VARY MOLE-FLOW STREAM=90X SUBSTREAM=MIXED COMPONENT=AR UOM= &
        "lbmol/hr" 
    LIMITS "0.0001" "250" STEP-SIZE=0.0001 MAX-STEP-SIZ=0.1 
    VARY MOLE-FLOW STREAM=90X SUBSTREAM=MIXED COMPONENT=O2 UOM= &
        "lbmol/hr" 
    LIMITS "50" "3000" STEP-SIZE=0.0001 MAX-STEP-SIZ=0.1 
    VARY STREAM-VAR STREAM=90X SUBSTREAM=MIXED VARIABLE=PRES  &
        UOM="psia" 
    LIMITS "5" "50" STEP-SIZE=0.0001 MAX-STEP-SIZ=0.1 
    VARY BLOCK-VAR BLOCK=ARGCOL VARIABLE=D:F SENTENCE=COL-SPECS 
    LIMITS "0.0001" "0.1" STEP-SIZE=0.0001 MAX-STEP-SIZ=0.1 
    VARY MOLE-FLOW STREAM=90X SUBSTREAM=MIXED COMPONENT=N2 UOM= &
        "lbmol/hr" 
    LIMITS "1.0E-7" "1" STEP-SIZE=1E-007 MAX-STEP-SIZ=0.1 
    VARY BLOCK-VAR BLOCK=LPCOL VARIABLE=MOLE-FLOW  &
        SENTENCE=PRODUCTS ID1=89 UOM="lbmol/hr" 
    LIMITS "250" "3000" STEP-SIZE=0.0001 MAX-STEP-SIZ=0.1 
    VARY BLOCK-VAR BLOCK=LPCOL VARIABLE=MOLE-FLOW  &
        SENTENCE=PRODUCTS ID1=140 UOM="lbmol/hr" 
    LIMITS "50" "6000" STEP-SIZE=0.0001 MAX-STEP-SIZ=0.1 
    VARY BLOCK-VAR BLOCK=LPCOL VARIABLE=PRES SENTENCE=P-SPEC  &
        ID1=1 UOM="psia" 
    LIMITS "15" "40" STEP-SIZE=0.0001 MAX-STEP-SIZ=0.1 
    VARY MOLE-FLOW STREAM=29X SUBSTREAM=MIXED COMPONENT=AR UOM= &
        "lbmol/hr" 
    LIMITS "1.0E-7" "30" STEP-SIZE=1E-007 MAX-STEP-SIZ=0.1 
    VARY MOLE-FLOW STREAM=29X SUBSTREAM=MIXED COMPONENT=N2 UOM= &
        "lbmol/hr" 
    LIMITS "500" "6000" STEP-SIZE=0.0001 MAX-STEP-SIZ=0.1 
    VARY MOLE-FLOW STREAM=29X SUBSTREAM=MIXED COMPONENT=O2 UOM= &
        "lbmol/hr" 
    LIMITS "1.0E-7" "0.1" STEP-SIZE=1E-007 MAX-STEP-SIZ=0.1 
    VARY BLOCK-VAR BLOCK=SPLT350 SENTENCE=FRAC VARIABLE=FRAC  &
        ID1=80 
    LIMITS "0.0001" "0.9999" STEP-SIZE=0.0001 MAX-STEP-SIZ=0.1 
    VARY BLOCK-VAR BLOCK=HX1 VARIABLE=TEMP SENTENCE=COLD-SIDE  &
        ID1=208 UOM="F" 
    LIMITS "-320" "-230" STEP-SIZE=0.0001 MAX-STEP-SIZ=0.1 
    VARY BLOCK-VAR BLOCK=HX1 VARIABLE=TEMP SENTENCE=COLD-SIDE  &
        ID1=140 UOM="F" 
    LIMITS "-320" "-230" STEP-SIZE=0.0001 MAX-STEP-SIZ=0.1 
    VARY STREAM-VAR STREAM=GASAIRX SUBSTREAM=MIXED VARIABLE=TEMP  &
        UOM="K" 
    LIMITS "90" "150" STEP-SIZE=0.0001 MAX-STEP-SIZ=0.1 

CONV-OPTIONS 
    PARAM CHECKSEQ=YES 

CONVERGENCE OPTIMIZE SQP 
    BLOCK-OPTION CONV-LEVEL=6 TERM-LEVEL=3 
    OPTIMIZE OPTID=OBJ 
    PARAM MAXIT=75 TOL=0.0001 NLIMIT=30 CONST-ITER=150 

REPORT INPUT 

STREAM-REPOR MOLEFLOW MASSFLOW MOLEFRAC MASSFRAC PROPERTIES=TBUB 
;
;
;
;
;
;PFS V 5.00
;$CONFIG
;paramdata APV121 ENRTL-RK
;paramdata APV121 VLE-IG
;paramdata APV121 VLE-RK
;paramdata APV121 VLE-HOC
;paramdata APV121 LLE-LIT
;paramdata APV121 LLE-ASPEN
;paramdata APV121 VLE-LIT
;paramdata APV121 BINARY
;paramdata APV121 EOS-LIT
;paramdata APV121 HENRY-AP
;paramdata APV121 SRK-ASPEN
;paramdata APV121 PC-SAFT
;paramdata APV121 POLYPCSF
;purebank APCI CAPP
;regdbank 1
;ftn_check 1
;autoblockid 0
;autostreamid 0
;showblockid 1
;showstreamid 1
;autoplacement 1
;grid 2
;gridresolution 0.100000
;scale 0
;streamprefix S
;blockprefix B
;labelscale 1.000000
;3DOn 1
;qwformat %.0f
;tempformat %.0f
;presformat %.0f
;flowformat %.0f
;strmqwformat %.0f
;vflowformat %.0f
;mflowformat %.0f
;vfracformat %.0f
;pseudobatch 0
;partial 0
;animation 0
;runanyway 0
;globalqw 0
;globaltemp 0
;globalpres 0
;globalflow 0
;globalstrmqw 0
;globalvflow 0
;globalmflow 0
;globalvfrac 0
;globalshowcalcerror 1
;globalshowcalcwarning 1
;globalshowdisabled 1
;tooldrawvisible 0
;browserheight 10185
;browserwidth 14535
;browsertreewidth 3165
;polyplusenabled 1
;dynaplusenabled 1
;bfracenabled 1
;rtfenabled 1
;rspenabled 1
;initializeicarus 17
;pinchenabled 0
;linklimit 5000
;material_color 0
;material_style 0
;material_width 1
;material_termid  
;heat_color 0
;heat_style 2
;heat_width 1
;heat_termid Q
;work_color 0
;work_style 1
;work_width 1
;work_termid W
;connections_color 9
;connections_style 3
;connections_width 1
;connections_termid C
;measurements_color 4
;measurements_style 3
;measurements_width 1
;measurements_termid M
;displayeoconn 0
;displaycalcs 0
;displaytransfers 0
;displaymeas 0
;displaydesignspecs 0
;displaycalccons 0
;displaymeascons 0
;displayothercons 0
;displayeomeas 1
;displayeomeastype 2
;displayothermanipconn 0
;showeoviews 0
;eoautosave 1
;allow_system_userprops 0
;copy_estimation 1
;copy_retrieved 1
;purge_incomp_params 0
;set_default_biparams 0
;set_default_dataset1 0
;set_default_dataset0 1
;bestinput 0
;autosmrun 0
;genallpropset 0
;strmresformdefault 0
;roottype 0
;exchangerfile 1
;streamformat 1
;runsettingfile 1
;usermodelfile 1
;fortranfile 0
;timeout 1000
;auto_evaluate 0
;customglobaldatapropset1 0 | Custom1 | * | %.2f | 0 | 6
;customglobaldatapropset2 0 | Custom2 | * | %.2f | 1 | 7
;customglobaldatapropset3 0 | Custom3 | * | %.2f | 2 | 8
;customglobaldatapropset4 0 | Custom4 | * | %.2f | 4 | 9
;customglobaldatapropset5 0 | Custom5 | * | %.2f | 5 | 10
;customglobaldatapropset6 0 | Custom6 | * | %.2f | 6 | 11
;economics_active 0
;ignoreEOVarNameFixupsOnImport 1
;tpsaupgrade 0
;#
;#APWNLIB
;startlibrary
;version1
;NumLibs = 4
;Built-In
;ACM Built-In
;ACM Models
;Hybrid Models
;NumCats = 12
;Mixers/Splitters
;active
;Separators
;active
;Exchangers
;active
;Columns
;active
;Reactors
;active
;Pressure Changers
;active
;Manipulators
;active
;Solids
;active
;Solids Separators
;active
;User Models
;active
;Controllers
;active
;Batch Models
;active
;endlibrary
;#APWNBLOCK
;; 
;25
;>VERSION 0
;HPCOL
;RadFrac
;Built-In
;RADFRAC
;>VERSION 0
;VALVE1
;Valve
;Built-In
;VALVE
;>VERSION 0
;LPCOL
;RadFrac
;Built-In
;RADFRAC
;>VERSION 0
;LOXSPLT
;FSplit
;Built-In
;FSPLIT
;>VERSION 0
;DRUM1
;Flash2
;Built-In
;FLASH2
;>VERSION 0
;SPLT350
;FSplit
;Built-In
;FSPLIT
;>VERSION 0
;MIX218
;Mixer
;Built-In
;MIXER
;>VERSION 0
;HX1
;MHeatX
;Built-In
;MHEATX
;>VERSION 0
;ARGCOL
;RadFrac
;Built-In
;RADFRAC
;>VERSION 0
;HX2
;MHeatX
;Built-In
;MHEATX
;>VERSION 0
;DRUM2
;Flash2
;Built-In
;FLASH2
;>VERSION 0
;VALVE2
;Heater
;Built-In
;HEATER
;>VERSION 0
;VALVE3
;Heater
;Built-In
;HEATER
;>VERSION 0
;MIX15
;Mixer
;Built-In
;MIXER
;>VERSION 0
;VALVE4
;Heater
;Built-In
;HEATER
;>VERSION 0
;MAC
;MCompr
;Built-In
;MCOMPR
;>VERSION 0
;SPL2
;FSplit
;Built-In
;FSPLIT
;>VERSION 0
;SPL1
;FSplit
;Built-In
;FSPLIT
;>VERSION 0
;BOOSTER
;MCompr
;Built-In
;MCOMPR
;>VERSION 0
;COMP3
;MCompr
;Built-In
;MCOMPR
;>VERSION 0
;LPEX
;MHeatX
;Built-In
;MHEATX
;>VERSION 0
;EXPDR1
;Compr
;Built-In
;COMPR
;>VERSION 0
;HPEX
;MHeatX
;Built-In
;MHEATX
;>VERSION 0
;EXPDR2
;Compr
;Built-In
;COMPR
;>VERSION 0
;SPL3
;FSplit
;Built-In
;FSPLIT
;#
;PFSVData
;# of PFS Objects = 83
;SIZE 45.401 89.5 -27.4985 -17.2965
;BLOCK
;ID: INPUTS
;Version: 1
;ICON: "BLOCK"
;Flag 0
;Section 
;At 0.000000 0.000000
;Label At 0.000000 0.000000
;Scale 1.000000 Modifier 0
;BLOCK
;ID: HPCOL
;Version: 1
;ICON: "FRACT1"
;Flag 0
;Section GLOBAL
;At 65.996864 -23.397436
;Label At -0.509990 0.638359
;Scale 1.562500 Modifier 0
;BLOCK
;ID: VALVE1
;Version: 1
;ICON: "VALVE4"
;Flag 0
;Section GLOBAL
;At 64.400002 -23.500000
;Label At 0.005102 0.377939
;Scale 1.250000 Modifier 0
;BLOCK
;ID: MIX218
;Version: 1
;ICON: "DOT"
;Flag 0
;Section GLOBAL
;At 74.699196 -18.957003
;Label At -0.099380 0.199234
;Scale 1.000000 Modifier 1
;BLOCK
;ID: SPLT350
;Version: 1
;ICON: "DOT"
;Flag 0
;Section GLOBAL
;At 74.704788 -21.658419
;Label At 0.395210 0.158419
;Scale 1.000000 Modifier 0
;BLOCK
;ID: DRUM1
;Version: 1
;ICON: "V-DRUM1"
;Flag 0
;Section GLOBAL
;At 74.699814 -20.757765
;Label At 0.830000 0.377000
;Scale 1.000000 Modifier 0
;BLOCK
;ID: LOXSPLT
;Version: 1
;ICON: "DOT"
;Flag 0
;Section GLOBAL
;At 81.603806 -25.461832
;Label At -0.103806 0.461832
;Scale 1.000000 Modifier 0
;BLOCK
;ID: LPCOL
;Version: 1
;ICON: "FRACT1"
;Flag 0
;Section GLOBAL
;At 78.500000 -23.100000
;Label At 0.356416 0.386938
;Annotation At -0.225000 -1.100000
;Scale 2.904333 Modifier 0
;BLOCK
;ID: HX1
;Version: 1
;ICON: "ICON1"
;Flag 0
;Section GLOBAL
;At 72.399994 -24.500000
;Label At 0.500000 0.550000
;Annotation At -0.375000 -0.475000
;Scale 1.000000 Modifier 0
;BLOCK
;ID: ARGCOL
;Version: 1
;ICON: "FRACT1"
;Flag 0
;Section GLOBAL
;At 85.099998 -22.900002
;Label At -0.800000 0.750000
;Annotation At -0.225000 -1.100000
;Scale 1.562500 Modifier 0
;BLOCK
;ID: HX2
;Version: 1
;ICON: "ICON1"
;Flag 0
;Section GLOBAL
;At 88.699989 -22.200001
;Label At 0.800000 0.050000
;Annotation At -0.375000 -0.475000
;Scale 1.000000 Modifier 3
;BLOCK
;ID: DRUM2
;Version: 1
;ICON: "V-DRUM1"
;Flag 0
;Section GLOBAL
;At 87.200005 -19.200001
;Label At 0.830000 0.377000
;Scale 1.000000 Modifier 1
;BLOCK
;ID: VALVE2
;Version: 1
;ICON: "VALVE4"
;Flag 0
;Section GLOBAL
;At 74.500008 -26.200001
;Label At -0.750000 -0.050000
;Scale 1.000000 Modifier 6
;BLOCK
;ID: VALVE3
;Version: 1
;ICON: "VALVE4"
;Flag 0
;Section GLOBAL
;At 73.499420 -21.502468
;Label At -0.499420 0.302467
;Scale 1.000000 Modifier 3
;BLOCK
;ID: MIX15
;Version: 1
;ICON: "DOT"
;Flag 0
;Section GLOBAL
;At 84.599998 -20.300001
;Label At 0.325000 0.375000
;Scale 1.000000 Modifier 5
;BLOCK
;ID: VALVE4
;Version: 1
;ICON: "VALVE4"
;Flag 0
;Section GLOBAL
;At 75.999397 -22.799377
;Label At -0.499397 0.199377
;Scale 1.000000 Modifier 0
;BLOCK
;ID: MAC
;Version: 1
;ICON: "BLOCK"
;Flag 0
;Section GLOBAL
;At 47.800152 -22.100000
;Label At 0.000000 0.100000
;Scale 1.000000 Modifier 0
;BLOCK
;ID: SPL2
;Version: 1
;ICON: "DOT"
;Flag 0
;Section GLOBAL
;At 49.800091 -20.700001
;Label At 0.299118 0.300546
;Scale 1.000000 Modifier 0
;BLOCK
;ID: SPL1
;Version: 1
;ICON: "DOT"
;Flag 0
;Section GLOBAL
;At 48.997952 -22.101627
;Label At -0.297863 0.401627
;Scale 1.000000 Modifier 0
;BLOCK
;ID: BOOSTER
;Version: 1
;ICON: "BLOCK"
;Flag 0
;Section GLOBAL
;At 51.400101 -24.100002
;Label At 0.000000 0.100000
;Scale 1.000000 Modifier 0
;BLOCK
;ID: COMP3
;Version: 1
;ICON: "BLOCK"
;Flag 0
;Section GLOBAL
;At 51.300091 -19.600000
;Label At 0.000000 0.100000
;Scale 1.000000 Modifier 0
;BLOCK
;ID: LPEX
;Version: 1
;ICON: "ICON1"
;Flag 0
;Section GLOBAL
;At 53.800091 -19.700001
;Label At 0.600000 0.450000
;Scale 1.000000 Modifier 0
;BLOCK
;ID: EXPDR1
;Version: 1
;ICON: "ICON3"
;Flag 0
;Section GLOBAL
;At 56.700089 -19.500000
;Label At 0.100723 0.499039
;Scale 1.000000 Modifier 0
;BLOCK
;ID: HPEX
;Version: 1
;ICON: "ICON1"
;Flag 0
;Section GLOBAL
;At 53.700089 -24.100002
;Label At 0.600000 0.450000
;Scale 1.000000 Modifier 0
;BLOCK
;ID: EXPDR2
;Version: 1
;ICON: "ICON3"
;Flag 0
;Section GLOBAL
;At 56.600010 -24.100000
;Label At 0.100723 0.499039
;Scale 1.000000 Modifier 0
;BLOCK
;ID: SPL3
;Version: 1
;ICON: "DOT"
;Flag 0
;Section GLOBAL
;At 59.100307 -24.101133
;Label At -0.500305 0.701134
;Scale 1.000000 Modifier 0
;STREAM
;ID: 109
;Version: 2
;Flag 0
;GLOBAL 117
;TYPE 0 TERMINAL 0
;At 65.112503 -23.400860
;Label At 0.060974 0.000000
;ROUTE 0 0
;r r 65.112503 -23.400860 0
;x y 64.800003 -23.400860 0
;y x 64.800003 -23.501860 0
;x x 64.763390 -23.501860 0
;t r 64.713387 -23.501860 0
;$ C 1.000000 0.0
;$ $ 0.0 0.0
;ROUTE 1 0
;r r 65.112503 -23.400860 0
;x x 65.546944 -23.400860 0
;y x 65.546944 -23.397436 0
;x x 65.593781 -23.397436 0
;t l 65.643806 -23.397436 0
;$ C 1.000000 0.0
;$ $ 0.0 0.0
;At 0.000000 0.000000
;Label At 0.000000 0.000000
;ROUTE 0 1
;$ $ 0.0 0.0
;ROUTE 1 1
;$ $ 0.0 0.0
;At 0.000000 0.000000
;Label At 0.000000 0.000000
;ROUTE 0 2
;$ $ 0.0 0.0
;ROUTE 1 2
;$ $ 0.0 0.0
;STREAM
;ID: 11
;Version: 2
;Flag 0
;GLOBAL 117
;TYPE 0 TERMINAL 0
;At 70.512505 -24.500051
;Label At 0.075447 0.000000
;ROUTE 0 0
;r r 70.512505 -24.500051 0
;x y 69.350006 -24.500051 0
;y x 69.350006 -22.575321 0
;x 0 66.896675 -22.575321 0
;t r 66.696678 -22.575321 0
;$ C 1.000000 0.0
;$ $ 0.0 0.0
;ROUTE 1 0
;r r 70.512505 -24.500051 0
;x x 71.825890 -24.500051 0
;t l 72.025887 -24.500051 0
;$ C 1.000000 0.0
;$ $ 0.0 0.0
;At 0.000000 0.000000
;Label At 0.000000 0.000000
;ROUTE 0 1
;$ $ 0.0 0.0
;ROUTE 1 1
;$ $ 0.0 0.0
;At 0.000000 0.000000
;Label At 0.000000 0.000000
;ROUTE 0 2
;$ $ 0.0 0.0
;ROUTE 1 2
;$ $ 0.0 0.0
;STREAM
;ID: 5
;Version: 2
;Flag 0
;GLOBAL 117
;TYPE 0 TERMINAL 0
;At 70.574997 -24.811680
;Label At 0.074715 0.000000
;ROUTE 0 0
;r r 70.574997 -24.811680 0
;x y 69.474998 -24.811680 0
;y x 69.474998 -24.688303 0
;x 0 67.127449 -24.688303 0
;t r 66.927452 -24.688303 0
;$ C 1.000000 0.0
;$ $ 0.0 0.0
;ROUTE 1 0
;r r 70.574997 -24.811680 0
;x x 71.824425 -24.811680 0
;t l 72.024422 -24.811680 0
;$ D -0.001465 -0.311628
;$ C 0.000000 0.0
;$ $ 0.0 0.0
;At 0.000000 0.000000
;Label At 0.000000 0.000000
;ROUTE 0 1
;$ $ 0.0 0.0
;ROUTE 1 1
;$ $ 0.0 0.0
;At 0.000000 0.000000
;Label At 0.000000 0.000000
;ROUTE 0 2
;$ $ 0.0 0.0
;ROUTE 1 2
;$ $ 0.0 0.0
;STREAM
;ID: HPLAIRX
;Version: 2
;Flag 0
;GLOBAL 117
;TYPE 0 TERMINAL 1
;At 61.794777 -23.501558
;Label At 0.787483 0.000000
;ROUTE 0 0
;$ $ 0.0 0.0
;ROUTE 1 0
;r r 61.794777 -23.501558 0
;x x 62.950001 -23.501558 0
;y y 62.950001 -23.501860 0
;x x 63.887653 -23.501860 0
;t l 64.087654 -23.501860 0
;$ C 1.000000 0.0
;$ $ 0.0 0.0
;At 0.000000 0.000000
;Label At 0.000000 0.000000
;ROUTE 0 1
;$ $ 0.0 0.0
;ROUTE 1 1
;$ $ 0.0 0.0
;At 0.000000 0.000000
;Label At 0.000000 0.000000
;ROUTE 0 2
;$ $ 0.0 0.0
;ROUTE 1 2
;$ $ 0.0 0.0
;STREAM
;ID: 130
;Version: 2
;Flag 0
;GLOBAL 117
;TYPE 0 TERMINAL 0
;At 77.412704 -18.947935
;Label At -0.037315 0.000000
;ROUTE 0 0
;r r 77.412704 -18.947935 0
;x y 79.800812 -18.947935 0
;y 0 79.800812 -20.071630 0
;t u 79.800812 -20.271631 0
;$ C 1.000000 0.0
;$ $ 0.0 0.0
;ROUTE 1 0
;r r 77.412704 -18.947935 0
;x x 74.949966 -18.947935 0
;y x 74.949966 -18.947168 0
;t r 74.749969 -18.947168 0
;$ D 0.000771 0.009834
;$ C 0.000000 0.0
;$ $ 0.0 0.0
;At 0.000000 -9.757812
;Label At 0.000000 0.000000
;ROUTE 0 1
;$ $ 0.0 0.0
;ROUTE 1 1
;$ $ 0.0 0.0
;At 0.000000 -9.757812
;Label At 0.000000 0.000000
;ROUTE 0 2
;$ $ 0.0 0.0
;ROUTE 1 2
;$ $ 0.0 0.0
;STREAM
;ID: 85
;Version: 2
;Flag 0
;GLOBAL 114
;TYPE 0 TERMINAL 0
;At 74.711288 -19.570269
;Label At 0.000000 0.075071
;ROUTE 0 0
;r r 74.711288 -19.570269 0
;y x 74.711288 -19.782770 0
;x y 74.699547 -19.782770 0
;y y 74.699547 -20.257982 0
;t u 74.699547 -20.357981 0
;$ C 1.000000 0.0
;$ $ 0.0 0.0
;ROUTE 1 0
;r r 74.711288 -19.570269 0
;y y 74.711288 -19.207624 0
;x y 74.710678 -19.207624 0
;y y 74.710678 -19.107626 0
;t d 74.710678 -19.007624 0
;$ D -0.038521 -0.050621
;$ C 0.000000 0.0
;$ $ 0.0 0.0
;At 0.000000 -9.757812
;Label At 0.000000 0.000000
;ROUTE 0 1
;$ $ 0.0 0.0
;ROUTE 1 1
;$ $ 0.0 0.0
;At 0.000000 -9.757812
;Label At 0.000000 0.000000
;ROUTE 0 2
;$ $ 0.0 0.0
;ROUTE 1 2
;$ $ 0.0 0.0
;STREAM
;ID: 208
;Version: 2
;Flag 0
;GLOBAL 114
;TYPE 0 TERMINAL 0
;At 72.561691 -21.403500
;Label At 0.000000 -1.534792
;ROUTE 0 0
;r r 72.561691 -21.403500 0
;y x 72.561691 -18.957003 0
;x 0 74.449203 -18.957003 0
;t l 74.649200 -18.957003 0
;$ C 1.000000 0.0
;$ $ 0.0 0.0
;ROUTE 1 0
;r r 72.561691 -21.403500 0
;y y 72.561691 -23.925255 0
;t u 72.561691 -24.125256 0
;$ D 0.160286 -0.000721
;$ C 0.000000 0.0
;$ $ 0.0 0.0
;At 0.000000 0.000000
;Label At 0.000000 0.000000
;ROUTE 0 1
;$ $ 0.0 0.0
;ROUTE 1 1
;$ $ 0.0 0.0
;At 0.000000 0.000000
;Label At 0.000000 0.000000
;ROUTE 0 2
;$ $ 0.0 0.0
;ROUTE 1 2
;$ $ 0.0 0.0
;STREAM
;ID: 350
;Version: 2
;Flag 0
;GLOBAL 114
;TYPE 0 TERMINAL 0
;At 74.699547 -21.382776
;Label At 0.000000 0.038502
;ROUTE 0 0
;r r 74.699547 -21.382776 0
;y 0 74.699547 -21.205772 0
;t d 74.699547 -21.155767 0
;$ C 1.000000 0.0
;$ $ 0.0 0.0
;ROUTE 1 0
;r r 74.699547 -21.382776 0
;y y 74.699547 -21.482777 0
;x x 74.703903 -21.482777 0
;y y 74.703903 -21.557528 0
;t u 74.703903 -21.607527 0
;$ D 0.049118 0.050892
;$ C 0.000000 0.0
;$ $ 0.0 0.0
;At 0.000000 -9.757812
;Label At 0.000000 0.000000
;ROUTE 0 1
;$ $ 0.0 0.0
;ROUTE 1 1
;$ $ 0.0 0.0
;At 0.000000 -9.757812
;Label At 0.000000 0.000000
;ROUTE 0 2
;$ $ 0.0 0.0
;ROUTE 1 2
;$ $ 0.0 0.0
;STREAM
;ID: 80
;Version: 2
;Flag 0
;GLOBAL 117
;TYPE 0 TERMINAL 0
;At 76.902885 -21.633945
;Label At -1.274048 -0.024473
;ROUTE 0 0
;r r 76.902885 -21.633945 0
;x y 76.302887 -21.633945 0
;y x 76.302887 -21.658419 0
;x 0 74.954788 -21.658419 0
;t r 74.754791 -21.658419 0
;$ C 1.000000 0.0
;$ $ 0.0 0.0
;ROUTE 1 0
;r r 76.902885 -21.633945 0
;x x 77.645172 -21.633945 0
;y x 77.645172 -21.849607 0
;t l 77.845169 -21.849607 0
;$ D 0.001434 1.250393
;$ C 0.000000 0.0
;$ $ 0.0 0.0
;At 0.000000 -9.757812
;Label At 0.000000 0.000000
;ROUTE 0 1
;$ $ 0.0 0.0
;ROUTE 1 1
;$ $ 0.0 0.0
;At 0.000000 -9.757812
;Label At 0.000000 0.000000
;ROUTE 0 2
;$ $ 0.0 0.0
;ROUTE 1 2
;$ $ 0.0 0.0
;STREAM
;ID: LIN
;Version: 2
;Flag 0
;GLOBAL 114
;TYPE 0 TERMINAL 2
;At 74.703865 -22.065941
;Label At 0.000000 0.166573
;ROUTE 0 0
;r u 74.703865 -22.065941 0
;y x 74.703865 -21.732796 0
;x y 74.710350 -21.732796 0
;y 0 74.710350 -21.907429 0
;t d 74.710350 -21.707420 0
;$ D -0.044441 -0.049002
;$ C 0.000000 0.0
;$ $ 0.0 0.0
;ROUTE 1 0
;$ $ 0.0 0.0
;At 0.000000 0.000000
;Label At 0.000000 0.000000
;ROUTE 0 1
;$ $ 0.0 0.0
;ROUTE 1 1
;$ $ 0.0 0.0
;At 0.000000 0.000000
;Label At 0.000000 0.000000
;ROUTE 0 2
;$ $ 0.0 0.0
;ROUTE 1 2
;$ $ 0.0 0.0
;STREAM
;ID: 29B
;Version: 2
;Flag 0
;GLOBAL 117
;TYPE 0 TERMINAL 0
;At 73.838158 -20.758656
;Label At 0.112267 0.000000
;ROUTE 0 0
;r r 73.838158 -20.758656 0
;x y 73.500618 -20.758656 0
;y y 73.500618 -21.201309 0
;t u 73.500618 -21.251308 0
;$ C 1.000000 0.0
;$ $ 0.0 0.0
;ROUTE 1 0
;r r 73.838158 -20.758656 0
;x x 74.400238 -20.758656 0
;t l 74.450241 -20.758656 0
;$ C 1.000000 0.0
;$ $ 0.0 0.0
;At 0.000000 0.000000
;Label At 0.000000 0.000000
;ROUTE 0 1
;$ $ 0.0 0.0
;ROUTE 1 1
;$ $ 0.0 0.0
;At 0.000000 0.000000
;Label At 0.000000 0.000000
;ROUTE 0 2
;$ $ 0.0 0.0
;ROUTE 1 2
;$ $ 0.0 0.0
;STREAM
;ID: 299A
;Version: 2
;Flag 0
;GLOBAL 117
;TYPE 0 TERMINAL 2
;At 83.367241 -25.438133
;Label At -0.978065 -0.023699
;ROUTE 0 0
;r l 83.367241 -25.438133 0
;x y 82.500000 -25.438133 0
;y x 82.500000 -25.461832 0
;x 0 81.753807 -25.461832 0
;t r 81.653809 -25.461832 0
;$ C 1.000000 0.0
;$ $ 0.0 0.0
;ROUTE 1 0
;$ $ 0.0 0.0
;At 0.000000 0.000000
;Label At 0.000000 0.000000
;ROUTE 0 1
;$ $ 0.0 0.0
;ROUTE 1 1
;$ $ 0.0 0.0
;At 0.000000 0.000000
;Label At 0.000000 0.000000
;ROUTE 0 2
;$ $ 0.0 0.0
;ROUTE 1 2
;$ $ 0.0 0.0
;STREAM
;ID: 71
;Version: 2
;Flag 0
;GLOBAL 117
;TYPE 0 TERMINAL 0
;At 81.087509 -25.458328
;Label At 0.076897 0.000000
;ROUTE 0 0
;r r 81.087509 -25.458328 0
;x y 80.875008 -25.458328 0
;y x 80.875008 -25.499428 0
;x 0 80.329750 -25.499428 0
;t r 80.229752 -25.499428 0
;$ C 1.000000 0.0
;$ $ 0.0 0.0
;ROUTE 1 0
;r r 81.087509 -25.458328 0
;x x 81.453804 -25.458328 0
;y x 81.453804 -25.461832 0
;t l 81.553802 -25.461832 0
;$ C 1.000000 0.0
;$ $ 0.0 0.0
;At 0.000000 -9.757812
;Label At 0.000000 0.000000
;ROUTE 0 1
;$ $ 0.0 0.0
;ROUTE 1 1
;$ $ 0.0 0.0
;At 0.000000 -9.757812
;Label At 0.000000 0.000000
;ROUTE 0 2
;$ $ 0.0 0.0
;ROUTE 1 2
;$ $ 0.0 0.0
;STREAM
;ID: LOX
;Version: 2
;Flag 0
;GLOBAL 117
;TYPE 0 TERMINAL 2
;At 80.318184 -26.299530
;Label At 0.650215 0.000000
;ROUTE 0 0
;r r 80.318184 -26.299530 0
;x 0 81.618614 -26.299530 0
;y 0 81.618614 -25.711773 0
;t d 81.618614 -25.511772 0
;$ D -0.035194 -0.049940
;$ C 0.000000 0.0
;$ $ 0.0 0.0
;ROUTE 1 0
;$ $ 0.0 0.0
;At 0.000000 0.000000
;Label At 0.000000 0.000000
;ROUTE 0 1
;$ $ 0.0 0.0
;ROUTE 1 1
;$ $ 0.0 0.0
;At 0.000000 0.000000
;Label At 0.000000 0.000000
;ROUTE 0 2
;$ $ 0.0 0.0
;ROUTE 1 2
;$ $ 0.0 0.0
;STREAM
;ID: LPAIRX
;Version: 2
;Flag 0
;GLOBAL 117
;TYPE 0 TERMINAL 1
;At 75.402496 -22.221060
;Label At 0.337006 0.000000
;ROUTE 0 0
;$ $ 0.0 0.0
;ROUTE 1 0
;r r 75.402496 -22.221060 0
;x x 76.625000 -22.221060 0
;y y 76.625000 -22.194328 0
;x x 77.648048 -22.194328 0
;t l 77.848045 -22.194328 0
;$ D 0.004311 0.905672
;$ C 0.000000 0.0
;$ $ 0.0 0.0
;At 0.000000 0.000000
;Label At 0.000000 0.000000
;ROUTE 0 1
;$ $ 0.0 0.0
;ROUTE 1 1
;$ $ 0.0 0.0
;At 0.000000 0.000000
;Label At 0.000000 0.000000
;ROUTE 0 2
;$ $ 0.0 0.0
;ROUTE 1 2
;$ $ 0.0 0.0
;STREAM
;ID: CLOXX
;Version: 2
;Flag 0
;GLOBAL 117
;TYPE 0 TERMINAL 1
;At 76.108673 -23.126102
;Label At 0.447136 0.000000
;ROUTE 0 0
;$ $ 0.0 0.0
;ROUTE 1 0
;r r 76.108673 -23.126102 0
;x x 76.975006 -23.126102 0
;y y 76.975006 -23.104080 0
;x x 77.650223 -23.104080 0
;t l 77.850220 -23.104080 0
;$ D 0.006485 -0.004080
;$ C 0.000000 0.0
;$ $ 0.0 0.0
;At 0.000000 0.000000
;Label At 0.000000 0.000000
;ROUTE 0 1
;$ $ 0.0 0.0
;ROUTE 1 1
;$ $ 0.0 0.0
;At 0.000000 0.000000
;Label At 0.000000 0.000000
;ROUTE 0 2
;$ $ 0.0 0.0
;ROUTE 1 2
;$ $ 0.0 0.0
;STREAM
;ID: LPLAIRX
;Version: 2
;Flag 0
;GLOBAL 117
;TYPE 0 TERMINAL 1
;At 74.298553 -22.807665
;Label At 0.789658 0.007980
;ROUTE 0 0
;$ $ 0.0 0.0
;ROUTE 1 0
;r r 74.298553 -22.807665 0
;x x 75.025002 -22.807665 0
;y y 75.025002 -22.799685 0
;x x 75.549271 -22.799685 0
;t l 75.749268 -22.799685 0
;$ C 1.000000 0.0
;$ $ 0.0 0.0
;At 0.000000 0.000000
;Label At 0.000000 0.000000
;ROUTE 0 1
;$ $ 0.0 0.0
;ROUTE 1 1
;$ $ 0.0 0.0
;At 0.000000 0.000000
;Label At 0.000000 0.000000
;ROUTE 0 2
;$ $ 0.0 0.0
;ROUTE 1 2
;$ $ 0.0 0.0
;STREAM
;ID: 90X
;Version: 2
;Flag 0
;GLOBAL 117
;TYPE 0 TERMINAL 1
;At 83.814621 -24.054033
;Label At -1.314110 0.000000
;ROUTE 0 0
;$ $ 0.0 0.0
;ROUTE 1 0
;r l 83.814621 -24.054033 0
;x x 81.500000 -24.054033 0
;y y 81.500000 -24.010500 0
;x x 79.364021 -24.010500 0
;t r 79.164024 -24.010500 0
;$ D 1.320290 -0.910500
;$ C 0.000000 0.0
;$ $ 0.0 0.0
;At 0.000000 0.000000
;Label At 0.000000 0.000000
;ROUTE 0 1
;$ $ 0.0 0.0
;ROUTE 1 1
;$ $ 0.0 0.0
;At 0.000000 0.000000
;Label At 0.000000 0.000000
;ROUTE 0 2
;$ $ 0.0 0.0
;ROUTE 1 2
;$ $ 0.0 0.0
;STREAM
;ID: 89
;Version: 2
;Flag 0
;GLOBAL 117
;TYPE 0 TERMINAL 0
;At 83.175003 -23.704218
;Label At 0.077103 0.000000
;ROUTE 0 0
;r r 83.175003 -23.704218 0
;x y 81.950005 -23.704218 0
;y x 81.950005 -22.778290 0
;x 0 79.370781 -22.778290 0
;t r 79.170784 -22.778290 0
;$ C 1.000000 0.0
;$ $ 0.0 0.0
;ROUTE 1 0
;r r 83.175003 -23.704218 0
;x x 84.554214 -23.704218 0
;t l 84.754211 -23.704218 0
;$ D 0.007278 -0.804216
;$ C 0.000000 0.0
;$ $ 0.0 0.0
;At 0.000000 0.000000
;Label At 0.000000 0.000000
;ROUTE 0 1
;$ $ 0.0 0.0
;ROUTE 1 1
;$ $ 0.0 0.0
;At 0.000000 0.000000
;Label At 0.000000 0.000000
;ROUTE 0 2
;$ $ 0.0 0.0
;ROUTE 1 2
;$ $ 0.0 0.0
;STREAM
;ID: 140
;Version: 2
;Flag 0
;GLOBAL 117
;TYPE 0 TERMINAL 0
;At 76.262329 -17.996168
;Label At 0.002174 0.000000
;ROUTE 0 0
;r r 76.262329 -17.996168 0
;x y 80.402176 -17.996168 0
;y 0 80.402176 -22.878290 0
;x 0 79.420784 -22.878290 0
;t r 79.220787 -22.878290 0
;$ C 2.000000 0.0
;$ $ 0.0 0.0
;ROUTE 1 0
;r r 76.262329 -17.996168 0
;x x 72.126831 -17.996168 0
;y y 72.126831 -23.925255 0
;t u 72.126831 -24.125256 0
;$ D -0.274574 -0.000721
;$ C 0.000000 0.0
;$ $ 0.0 0.0
;At 0.000000 0.000000
;Label At 0.000000 0.000000
;ROUTE 0 1
;$ $ 0.0 0.0
;ROUTE 1 1
;$ $ 0.0 0.0
;At 0.000000 0.000000
;Label At 0.000000 0.000000
;ROUTE 0 2
;$ $ 0.0 0.0
;ROUTE 1 2
;$ $ 0.0 0.0
;STREAM
;ID: G
;Version: 2
;Flag 0
;GLOBAL 114
;TYPE 0 TERMINAL 2
;At 53.702995 -26.597748
;Label At 0.000000 -0.402006
;ROUTE 0 0
;r d 53.702995 -26.597748 0
;y y 53.702995 -27.498541 0
;x y 72.599869 -27.498541 0
;y 0 72.599869 -25.076355 0
;t d 72.599869 -24.876354 0
;$ D 0.198463 -0.000786
;$ C 0.000000 0.0
;$ $ 0.0 0.0
;ROUTE 1 0
;$ $ 0.0 0.0
;At 0.000000 0.000000
;Label At 0.000000 0.000000
;ROUTE 0 1
;$ $ 0.0 0.0
;ROUTE 1 1
;$ $ 0.0 0.0
;At 0.000000 0.000000
;Label At 0.000000 0.000000
;ROUTE 0 2
;$ $ 0.0 0.0
;ROUTE 1 2
;$ $ 0.0 0.0
;STREAM
;ID: 29
;Version: 2
;Flag 0
;GLOBAL 114
;TYPE 0 TERMINAL 2
;At 73.505295 -23.103661
;Label At 0.000000 -0.799025
;ROUTE 0 0
;r d 73.505295 -23.103661 0
;y x 73.505295 -24.270607 0
;x 0 72.971252 -24.270607 0
;t r 72.771255 -24.270607 0
;$ D -0.002533 0.229445
;$ C 0.000000 0.0
;$ $ 0.0 0.0
;ROUTE 1 0
;$ $ 0.0 0.0
;At 0.000000 0.000000
;Label At 0.000000 0.000000
;ROUTE 0 1
;$ $ 0.0 0.0
;ROUTE 1 1
;$ $ 0.0 0.0
;At 0.000000 0.000000
;Label At 0.000000 0.000000
;ROUTE 0 2
;$ $ 0.0 0.0
;ROUTE 1 2
;$ $ 0.0 0.0
;STREAM
;ID: 12
;Version: 2
;Flag 0
;GLOBAL 117
;TYPE 0 TERMINAL 0
;At 73.726990 -24.738977
;Label At 0.083405 0.000000
;ROUTE 0 0
;r r 73.726990 -24.738977 0
;x x 72.874893 -24.738977 0
;y 0 72.874893 -24.738060 0
;t r 72.774895 -24.738060 0
;$ D 0.001106 -0.238008
;$ C 0.000000 0.0
;$ $ 0.0 0.0
;ROUTE 1 0
;r r 73.726990 -24.738977 0
;x x 74.500313 -24.738977 0
;y y 74.500313 -25.849871 0
;t u 74.500313 -25.949871 0
;$ C 1.000000 0.0
;$ $ 0.0 0.0
;At 0.000000 0.000000
;Label At 0.000000 0.000000
;ROUTE 0 1
;$ $ 0.0 0.0
;ROUTE 1 1
;$ $ 0.0 0.0
;At 0.000000 0.000000
;Label At 0.000000 0.000000
;ROUTE 0 2
;$ $ 0.0 0.0
;ROUTE 1 2
;$ $ 0.0 0.0
;STREAM
;ID: W
;Version: 2
;Flag 0
;GLOBAL 114
;TYPE 0 TERMINAL 2
;At 53.278656 -25.101387
;Label At 0.000000 -0.595566
;ROUTE 0 0
;r d 53.278656 -25.101387 0
;y y 53.278656 -26.203184 0
;x y 72.196754 -26.203184 0
;y 0 72.196754 -25.076355 0
;t d 72.196754 -24.876354 0
;$ D -0.204651 -0.000786
;$ C 0.000000 0.0
;$ $ 0.0 0.0
;ROUTE 1 0
;$ $ 0.0 0.0
;At 0.000000 0.000000
;Label At 0.000000 0.000000
;ROUTE 0 1
;$ $ 0.0 0.0
;ROUTE 1 1
;$ $ 0.0 0.0
;At 0.000000 0.000000
;Label At 0.000000 0.000000
;ROUTE 0 2
;$ $ 0.0 0.0
;ROUTE 1 2
;$ $ 0.0 0.0
;STREAM
;ID: 90
;Version: 2
;Flag 0
;GLOBAL 117
;TYPE 0 TERMINAL 2
;At 84.192787 -24.096010
;Label At 2.139076 -0.094856
;ROUTE 0 0
;r r 84.192787 -24.096010 0
;x x 84.550003 -24.096010 0
;y x 84.550003 -24.795641 0
;x y 86.375275 -24.795641 0
;y 0 86.375275 -24.190866 0
;x 0 86.230583 -24.190866 0
;t r 86.030586 -24.190866 0
;$ C 1.000000 0.0
;$ $ 0.0 0.0
;ROUTE 1 0
;$ $ 0.0 0.0
;At 0.000000 0.000000
;Label At 0.000000 0.000000
;ROUTE 0 1
;$ $ 0.0 0.0
;ROUTE 1 1
;$ $ 0.0 0.0
;At 0.000000 0.000000
;Label At 0.000000 0.000000
;ROUTE 0 2
;$ $ 0.0 0.0
;ROUTE 1 2
;$ $ 0.0 0.0
;STREAM
;ID: 160
;Version: 2
;Flag 0
;GLOBAL 117
;TYPE 0 TERMINAL 0
;At 87.098969 -21.027021
;Label At -0.398872 0.000000
;ROUTE 0 0
;r r 87.098969 -21.027021 0
;x y 85.799820 -21.027021 0
;y 0 85.799820 -21.178366 0
;t u 85.799820 -21.378366 0
;$ C 1.000000 0.0
;$ $ 0.0 0.0
;ROUTE 1 0
;r r 87.098969 -21.027021 0
;x x 88.416695 -21.027021 0
;y y 88.416695 -21.623739 0
;t u 88.416695 -21.823740 0
;$ D -0.283348 0.750368
;$ C 0.000000 0.0
;$ $ 0.0 0.0
;At 0.000000 0.000000
;Label At 0.000000 0.000000
;ROUTE 0 1
;$ $ 0.0 0.0
;ROUTE 1 1
;$ $ 0.0 0.0
;At 0.000000 0.000000
;Label At 0.000000 0.000000
;ROUTE 0 2
;$ $ 0.0 0.0
;ROUTE 1 2
;$ $ 0.0 0.0
;STREAM
;ID: 97
;Version: 2
;Flag 0
;GLOBAL 117
;TYPE 0 TERMINAL 0
;At 81.696823 -26.799999
;Label At 7.195625 0.000000
;ROUTE 0 0
;r r 81.696823 -26.799999 0
;x y 74.501205 -26.799999 0
;y 0 74.501205 -26.651161 0
;t d 74.501205 -26.451160 0
;$ C 1.000000 0.0
;$ $ 0.0 0.0
;ROUTE 1 0
;r r 81.696823 -26.799999 0
;x x 88.892448 -26.799999 0
;y y 88.892448 -22.779343 0
;t d 88.892448 -22.579342 0
;$ D 0.567924 -0.380751
;$ C 0.000000 0.0
;$ $ 0.0 0.0
;At 0.000000 0.000000
;Label At 0.000000 0.000000
;ROUTE 0 1
;$ $ 0.0 0.0
;ROUTE 1 1
;$ $ 0.0 0.0
;At 0.000000 0.000000
;Label At 0.000000 0.000000
;ROUTE 0 2
;$ $ 0.0 0.0
;ROUTE 1 2
;$ $ 0.0 0.0
;STREAM
;ID: LAR
;Version: 2
;Flag 0
;GLOBAL 114
;TYPE 0 TERMINAL 2
;At 88.402702 -23.594646
;Label At 0.000000 0.669649
;ROUTE 0 0
;r u 88.402702 -23.594646 0
;y x 88.402702 -22.924997 0
;x y 88.430687 -22.924997 0
;y 0 88.430687 -22.779343 0
;t d 88.430687 -22.579342 0
;$ D -0.269356 -0.753138
;$ C 0.000000 0.0
;$ $ 0.0 0.0
;ROUTE 1 0
;$ $ 0.0 0.0
;At 0.000000 0.000000
;Label At 0.000000 0.000000
;ROUTE 0 1
;$ $ 0.0 0.0
;ROUTE 1 1
;$ $ 0.0 0.0
;At 0.000000 0.000000
;Label At 0.000000 0.000000
;ROUTE 0 2
;$ $ 0.0 0.0
;ROUTE 1 2
;$ $ 0.0 0.0
;STREAM
;ID: 52
;Version: 2
;Flag 0
;GLOBAL 114
;TYPE 0 TERMINAL 0
;At 88.878456 -20.375446
;Label At 0.000000 -0.813494
;ROUTE 0 0
;r r 88.878456 -20.375446 0
;y 0 88.878456 -21.623739 0
;t u 88.878456 -21.823740 0
;$ D -0.197105 0.374851
;$ C 0.000000 0.0
;$ $ 0.0 0.0
;ROUTE 1 0
;r r 88.878456 -20.375446 0
;y y 88.878456 -19.200891 0
;x x 87.649574 -19.200891 0
;t r 87.449577 -19.200891 0
;$ C 1.000000 0.0
;$ $ 0.0 0.0
;At 0.000000 0.000000
;Label At 0.000000 0.000000
;ROUTE 0 1
;$ $ 0.0 0.0
;ROUTE 1 1
;$ $ 0.0 0.0
;At 0.000000 0.000000
;Label At 0.000000 0.000000
;ROUTE 0 2
;$ $ 0.0 0.0
;ROUTE 1 2
;$ $ 0.0 0.0
;STREAM
;ID: 16
;Version: 2
;Flag 0
;GLOBAL 117
;TYPE 0 TERMINAL 0
;At 86.062637 -20.296989
;Label At 0.442261 0.000000
;ROUTE 0 0
;r r 86.062637 -20.296989 0
;x y 87.200272 -20.296989 0
;y 0 87.200272 -19.798004 0
;t d 87.200272 -19.598003 0
;$ C 1.000000 0.0
;$ $ 0.0 0.0
;ROUTE 1 0
;r r 86.062637 -20.296989 0
;x x 84.850021 -20.296989 0
;t r 84.650024 -20.296989 0
;$ D 0.000023 0.003012
;$ C 0.000000 0.0
;$ $ 0.0 0.0
;At 0.000000 0.000000
;Label At 0.000000 0.000000
;ROUTE 0 1
;$ $ 0.0 0.0
;ROUTE 1 1
;$ $ 0.0 0.0
;At 0.000000 0.000000
;Label At 0.000000 0.000000
;ROUTE 0 2
;$ $ 0.0 0.0
;ROUTE 1 2
;$ $ 0.0 0.0
;STREAM
;ID: 15
;Version: 2
;Flag 0
;GLOBAL 117
;TYPE 0 TERMINAL 0
;At 85.905655 -18.449999
;Label At 0.439888 0.000000
;ROUTE 0 0
;r r 85.905655 -18.449999 0
;x y 87.200272 -18.449999 0
;y 0 87.200272 -18.600216 0
;t u 87.200272 -18.800217 0
;$ C 1.000000 0.0
;$ $ 0.0 0.0
;ROUTE 1 0
;r r 85.905655 -18.449999 0
;x x 84.611031 -18.449999 0
;y y 84.611031 -20.049633 0
;t u 84.611031 -20.249634 0
;$ D -0.038971 0.050367
;$ C 0.000000 0.0
;$ $ 0.0 0.0
;At 0.000000 0.000000
;Label At 0.000000 0.000000
;ROUTE 0 1
;$ $ 0.0 0.0
;ROUTE 1 1
;$ $ 0.0 0.0
;At 0.000000 0.000000
;Label At 0.000000 0.000000
;ROUTE 0 2
;$ $ 0.0 0.0
;ROUTE 1 2
;$ $ 0.0 0.0
;STREAM
;ID: 29X
;Version: 2
;Flag 0
;GLOBAL 114
;TYPE 0 TERMINAL 1
;At 73.474823 -22.594839
;Label At 0.000000 0.284920
;ROUTE 0 0
;$ $ 0.0 0.0
;ROUTE 1 0
;r u 73.474823 -22.594839 0
;y y 73.474823 -22.025000 0
;x x 73.499725 -22.025000 0
;y y 73.499725 -21.952599 0
;t d 73.499725 -21.752598 0
;$ C 1.000000 0.0
;$ $ 0.0 0.0
;At 0.000000 0.000000
;Label At 0.000000 0.000000
;ROUTE 0 1
;$ $ 0.0 0.0
;ROUTE 1 1
;$ $ 0.0 0.0
;At 0.000000 0.000000
;Label At 0.000000 0.000000
;ROUTE 0 2
;$ $ 0.0 0.0
;ROUTE 1 2
;$ $ 0.0 0.0
;STREAM
;ID: CLOX
;Version: 2
;Flag 0
;GLOBAL 117
;TYPE 0 TERMINAL 2
;At 83.399292 -20.303955
;Label At 0.464996 0.000000
;ROUTE 0 0
;r r 83.399292 -20.303955 0
;x y 83.975006 -20.303955 0
;y x 83.975006 -20.300001 0
;x 0 84.349998 -20.300001 0
;t l 84.549995 -20.300001 0
;$ C 1.000000 0.0
;$ $ 0.0 0.0
;ROUTE 1 0
;$ $ 0.0 0.0
;At 0.000000 0.000000
;Label At 0.000000 0.000000
;ROUTE 0 1
;$ $ 0.0 0.0
;ROUTE 1 1
;$ $ 0.0 0.0
;At 0.000000 0.000000
;Label At 0.000000 0.000000
;ROUTE 0 2
;$ $ 0.0 0.0
;ROUTE 1 2
;$ $ 0.0 0.0
;STREAM
;ID: GASAIRX
;Version: 2
;Flag 0
;GLOBAL 117
;TYPE 0 TERMINAL 1
;At 62.599018 -24.200863
;Label At 0.762989 0.000000
;ROUTE 0 0
;$ $ 0.0 0.0
;ROUTE 1 0
;r r 62.599018 -24.200863 0
;x x 64.125000 -24.200863 0
;y y 64.125000 -24.177773 0
;x x 65.443787 -24.177773 0
;t l 65.643784 -24.177773 0
;$ D -0.000015 -0.780336
;$ C 0.000000 0.0
;$ $ 0.0 0.0
;At 0.000000 0.000000
;Label At 0.000000 0.000000
;ROUTE 0 1
;$ $ 0.0 0.0
;ROUTE 1 1
;$ $ 0.0 0.0
;At 0.000000 0.000000
;Label At 0.000000 0.000000
;ROUTE 0 2
;$ $ 0.0 0.0
;ROUTE 1 2
;$ $ 0.0 0.0
;STREAM
;ID: LAIR2
;Version: 2
;Flag 0
;GLOBAL 117
;TYPE 0 TERMINAL 0
;At 76.825005 -22.800575
;Label At -0.074730 0.000000
;ROUTE 0 0
;r r 76.825005 -22.800575 0
;x x 76.350555 -22.800575 0
;t r 76.250557 -22.800575 0
;$ C 1.000000 0.0
;$ $ 0.0 0.0
;ROUTE 1 0
;r r 76.825005 -22.800575 0
;x x 77.050003 -22.800575 0
;y y 77.050003 -22.810989 0
;x x 77.745834 -22.810989 0
;t l 77.845833 -22.810989 0
;$ D 0.002098 0.289011
;$ C 0.000000 0.0
;$ $ 0.0 0.0
;At 0.000000 0.000000
;Label At 0.000000 0.000000
;ROUTE 0 1
;$ $ 0.0 0.0
;ROUTE 1 1
;$ $ 0.0 0.0
;At 0.000000 0.000000
;Label At 0.000000 0.000000
;ROUTE 0 2
;$ $ 0.0 0.0
;ROUTE 1 2
;$ $ 0.0 0.0
;STREAM
;ID: AIR
;Version: 2
;Flag 0
;GLOBAL 117
;TYPE 0 TERMINAL 1
;At 45.401028 -22.100546
;Label At 0.269165 0.000000
;ROUTE 0 0
;$ $ 0.0 0.0
;ROUTE 1 0
;r r 45.401028 -22.100546 0
;x x 46.375149 -22.100546 0
;y y 46.375149 -22.100000 0
;x x 47.150150 -22.100000 0
;t l 47.350151 -22.100000 0
;$ C 1.000000 0.0
;$ $ 0.0 0.0
;At 0.000000 0.000000
;Label At 0.000000 0.000000
;ROUTE 0 1
;$ $ 0.0 0.0
;ROUTE 1 1
;$ $ 0.0 0.0
;At 0.000000 0.000000
;Label At 0.000000 0.000000
;ROUTE 0 2
;$ $ 0.0 0.0
;ROUTE 1 2
;$ $ 0.0 0.0
;STREAM
;ID: 300
;Version: 2
;Flag 0
;GLOBAL 117
;TYPE 0 TERMINAL 0
;At 48.710663 -22.101376
;Label At -0.161228 0.001627
;ROUTE 0 0
;r r 48.710663 -22.101376 0
;x y 48.598160 -22.101376 0
;y x 48.598160 -22.100000 0
;x 0 48.300152 -22.100000 0
;t r 48.250153 -22.100000 0
;$ C 1.000000 0.0
;$ $ 0.0 0.0
;ROUTE 1 0
;r r 48.710663 -22.101376 0
;x x 48.897953 -22.101376 0
;y x 48.897953 -22.101627 0
;t l 48.947952 -22.101627 0
;$ C 1.000000 0.0
;$ $ 0.0 0.0
;At 0.000000 0.000000
;Label At 0.000000 0.000000
;ROUTE 0 1
;$ $ 0.0 0.0
;ROUTE 1 1
;$ $ 0.0 0.0
;At 0.000000 0.000000
;Label At 0.000000 0.000000
;ROUTE 0 2
;$ $ 0.0 0.0
;ROUTE 1 2
;$ $ 0.0 0.0
;STREAM
;ID: 303
;Version: 2
;Flag 0
;GLOBAL 117
;TYPE 0 TERMINAL 0
;At 50.986946 -20.702827
;Label At 1.226738 0.000000
;ROUTE 0 0
;r r 50.986946 -20.702827 0
;x x 50.050091 -20.702827 0
;y 0 50.050091 -20.700001 0
;t r 49.850090 -20.700001 0
;$ C 1.000000 0.0
;$ $ 0.0 0.0
;ROUTE 1 0
;r r 50.986946 -20.702827 0
;x x 52.601074 -20.702827 0
;y y 52.601074 -19.947704 0
;x x 53.228920 -19.947704 0
;t l 53.428921 -19.947704 0
;$ D 0.002937 -0.247652
;$ C 0.000000 0.0
;$ $ 0.0 0.0
;At 0.000000 0.000000
;Label At 0.000000 0.000000
;ROUTE 0 1
;$ $ 0.0 0.0
;ROUTE 1 1
;$ $ 0.0 0.0
;At 0.000000 0.000000
;Label At 0.000000 0.000000
;ROUTE 0 2
;$ $ 0.0 0.0
;ROUTE 1 2
;$ $ 0.0 0.0
;STREAM
;ID: 302
;Version: 2
;Flag 0
;GLOBAL 114
;TYPE 0 TERMINAL 0
;At 49.797268 -19.987164
;Label At 0.000000 0.000000
;ROUTE 0 0
;r r 49.797268 -19.987164 0
;y y 49.797268 -20.548882 0
;x y 49.800091 -20.548882 0
;t u 49.800091 -20.648882 0
;$ D -0.049999 0.051119
;$ C 0.000000 0.0
;$ $ 0.0 0.0
;ROUTE 1 0
;r r 49.797268 -19.987164 0
;y y 49.797268 -19.600000 0
;x x 50.750092 -19.600000 0
;t l 50.850090 -19.600000 0
;$ C 1.000000 0.0
;$ $ 0.0 0.0
;At 0.000000 0.000000
;Label At 0.000000 0.000000
;ROUTE 0 1
;$ $ 0.0 0.0
;ROUTE 1 1
;$ $ 0.0 0.0
;At 0.000000 0.000000
;Label At 0.000000 0.000000
;ROUTE 0 2
;$ $ 0.0 0.0
;ROUTE 1 2
;$ $ 0.0 0.0
;STREAM
;ID: 301
;Version: 2
;Flag 0
;GLOBAL 117
;TYPE 0 TERMINAL 0
;At 49.002586 -21.287502
;Label At 0.207203 0.587502
;ROUTE 0 0
;r r 49.002586 -21.287502 0
;y 0 49.002586 -21.951668 0
;t u 49.002586 -22.051668 0
;$ D -0.045364 0.049959
;$ C 0.000000 0.0
;$ $ 0.0 0.0
;ROUTE 1 0
;r r 49.002586 -21.287502 0
;y y 49.002586 -20.700001 0
;x x 49.650093 -20.700001 0
;t l 49.750092 -20.700001 0
;$ C 1.000000 0.0
;$ $ 0.0 0.0
;At 0.000000 0.000000
;Label At 0.000000 0.000000
;ROUTE 0 1
;$ $ 0.0 0.0
;ROUTE 1 1
;$ $ 0.0 0.0
;At 0.000000 0.000000
;Label At 0.000000 0.000000
;ROUTE 0 2
;$ $ 0.0 0.0
;ROUTE 1 2
;$ $ 0.0 0.0
;STREAM
;ID: 304
;Version: 2
;Flag 0
;GLOBAL 114
;TYPE 0 TERMINAL 0
;At 49.018589 -23.062510
;Label At 0.000000 -0.116718
;ROUTE 0 0
;r r 49.018589 -23.062510 0
;y y 49.018589 -22.252747 0
;x 0 49.017086 -22.252747 0
;t d 49.017086 -22.152746 0
;$ D -0.030865 -0.051119
;$ C 0.000000 0.0
;$ $ 0.0 0.0
;ROUTE 1 0
;r r 49.018589 -23.062510 0
;y y 49.018589 -24.100002 0
;x x 50.850101 -24.100002 0
;t l 50.950100 -24.100002 0
;$ C 1.000000 0.0
;$ $ 0.0 0.0
;At 0.000000 0.000000
;Label At 0.000000 0.000000
;ROUTE 0 1
;$ $ 0.0 0.0
;ROUTE 1 1
;$ $ 0.0 0.0
;At 0.000000 0.000000
;Label At 0.000000 0.000000
;ROUTE 0 2
;$ $ 0.0 0.0
;ROUTE 1 2
;$ $ 0.0 0.0
;STREAM
;ID: 400
;Version: 2
;Flag 0
;GLOBAL 117
;TYPE 0 TERMINAL 0
;At 52.775089 -24.000053
;Label At 0.103970 0.000000
;ROUTE 0 0
;r r 52.775089 -24.000053 0
;x y 52.575089 -24.000053 0
;y x 52.575089 -24.100002 0
;x x 51.950100 -24.100002 0
;t r 51.850101 -24.100002 0
;$ C 1.000000 0.0
;$ $ 0.0 0.0
;ROUTE 1 0
;r r 52.775089 -24.000053 0
;x x 53.125980 -24.000053 0
;y y 53.125980 -24.100054 0
;x x 53.225983 -24.100054 0
;t l 53.325981 -24.100054 0
;$ C 1.000000 0.0
;$ $ 0.0 0.0
;At 0.000000 0.000000
;Label At 0.000000 0.000000
;ROUTE 0 1
;$ $ 0.0 0.0
;ROUTE 1 1
;$ $ 0.0 0.0
;At 0.000000 0.000000
;Label At 0.000000 0.000000
;ROUTE 0 2
;$ $ 0.0 0.0
;ROUTE 1 2
;$ $ 0.0 0.0
;STREAM
;ID: 305
;Version: 2
;Flag 0
;GLOBAL 117
;TYPE 0 TERMINAL 0
;At 52.822586 -19.699039
;Label At -0.609840 0.099039
;ROUTE 0 0
;r r 52.822586 -19.699039 0
;x y 52.572586 -19.699039 0
;y x 52.572586 -19.600000 0
;x x 51.850090 -19.600000 0
;t r 51.750092 -19.600000 0
;$ C 1.000000 0.0
;$ $ 0.0 0.0
;ROUTE 1 0
;r r 52.822586 -19.699039 0
;x x 53.325985 -19.699039 0
;y x 53.325985 -19.700052 0
;t l 53.425983 -19.700052 0
;$ C 1.000000 0.0
;$ $ 0.0 0.0
;At 0.000000 0.000000
;Label At 0.000000 0.000000
;ROUTE 0 1
;$ $ 0.0 0.0
;ROUTE 1 1
;$ $ 0.0 0.0
;At 0.000000 0.000000
;Label At 0.000000 0.000000
;ROUTE 0 2
;$ $ 0.0 0.0
;ROUTE 1 2
;$ $ 0.0 0.0
;STREAM
;ID: 310
;Version: 2
;Flag 0
;GLOBAL 117
;TYPE 0 TERMINAL 0
;At 54.881290 -19.499210
;Label At 0.818802 0.014112
;ROUTE 0 0
;r r 54.881290 -19.499210 0
;x x 54.373142 -19.499210 0
;y 0 54.373142 -19.496929 0
;t r 54.173141 -19.496929 0
;$ D -0.000748 0.203123
;$ C 0.000000 0.0
;$ $ 0.0 0.0
;ROUTE 1 0
;r r 54.881290 -19.499210 0
;x x 55.243790 -19.499210 0
;y y 55.243790 -19.485098 0
;x x 56.126022 -19.485098 0
;t l 56.326023 -19.485098 0
;$ D -0.061123 -0.146452
;$ C 0.000000 0.0
;$ $ 0.0 0.0
;At 0.000000 0.000000
;Label At 0.000000 0.000000
;ROUTE 0 1
;$ $ 0.0 0.0
;ROUTE 1 1
;$ $ 0.0 0.0
;At 0.000000 0.000000
;Label At 0.000000 0.000000
;ROUTE 0 2
;$ $ 0.0 0.0
;ROUTE 1 2
;$ $ 0.0 0.0
;STREAM
;ID: GASAIR
;Version: 2
;Flag 0
;GLOBAL 117
;TYPE 0 TERMINAL 2
;At 62.093025 -24.503141
;Label At -1.220909 0.000000
;ROUTE 0 0
;r l 62.093025 -24.503141 0
;x y 57.596504 -24.503141 0
;y x 57.596504 -19.938410 0
;x 0 54.373142 -19.938410 0
;t r 54.173141 -19.938410 0
;$ D -0.000748 -0.238358
;$ C 0.000000 0.0
;$ $ 0.0 0.0
;ROUTE 1 0
;$ $ 0.0 0.0
;At 0.000000 0.000000
;Label At 0.000000 0.000000
;ROUTE 0 1
;$ $ 0.0 0.0
;ROUTE 1 1
;$ $ 0.0 0.0
;At 0.000000 0.000000
;Label At 0.000000 0.000000
;ROUTE 0 2
;$ $ 0.0 0.0
;ROUTE 1 2
;$ $ 0.0 0.0
;STREAM
;ID: WX
;Version: 2
;Flag 0
;GLOBAL 114
;TYPE 0 TERMINAL 1
;At 53.496429 -21.399904
;Label At 0.000000 0.325670
;ROUTE 0 0
;$ $ 0.0 0.0
;ROUTE 1 0
;r u 53.496429 -21.399904 0
;y y 53.496429 -20.748562 0
;x x 53.541470 -20.748562 0
;y y 53.541470 -20.272255 0
;t d 53.541470 -20.072254 0
;$ D -0.260029 -0.747719
;$ C 0.000000 0.0
;$ $ 0.0 0.0
;At 0.000000 0.000000
;Label At 0.000000 0.000000
;ROUTE 0 1
;$ $ 0.0 0.0
;ROUTE 1 1
;$ $ 0.0 0.0
;At 0.000000 0.000000
;Label At 0.000000 0.000000
;ROUTE 0 2
;$ $ 0.0 0.0
;ROUTE 1 2
;$ $ 0.0 0.0
;STREAM
;ID: GX
;Version: 2
;Flag 0
;GLOBAL 114
;TYPE 0 TERMINAL 1
;At 53.998325 -21.399904
;Label At 0.000000 0.325670
;ROUTE 0 0
;$ $ 0.0 0.0
;ROUTE 1 0
;r u 53.998325 -21.399904 0
;y y 53.998325 -20.748562 0
;x x 54.006187 -20.748562 0
;y y 54.006187 -20.272255 0
;t d 54.006187 -20.072254 0
;$ D 0.204689 -0.747719
;$ C 0.000000 0.0
;$ $ 0.0 0.0
;At 0.000000 0.000000
;Label At 0.000000 0.000000
;ROUTE 0 1
;$ $ 0.0 0.0
;ROUTE 1 1
;$ $ 0.0 0.0
;At 0.000000 0.000000
;Label At 0.000000 0.000000
;ROUTE 0 2
;$ $ 0.0 0.0
;ROUTE 1 2
;$ $ 0.0 0.0
;STREAM
;ID: WASTE
;Version: 2
;Flag 0
;GLOBAL 117
;TYPE 0 TERMINAL 2
;At 52.395046 -17.900583
;Label At 0.763073 0.000000
;ROUTE 0 0
;r r 52.395046 -17.900583 0
;x y 53.550766 -17.900583 0
;y 0 53.550766 -19.124058 0
;t u 53.550766 -19.324059 0
;$ D -0.250732 0.751511
;$ C 0.000000 0.0
;$ $ 0.0 0.0
;ROUTE 1 0
;$ $ 0.0 0.0
;At 0.000000 0.000000
;Label At 0.000000 0.000000
;ROUTE 0 1
;$ $ 0.0 0.0
;ROUTE 1 1
;$ $ 0.0 0.0
;At 0.000000 0.000000
;Label At 0.000000 0.000000
;ROUTE 0 2
;$ $ 0.0 0.0
;ROUTE 1 2
;$ $ 0.0 0.0
;STREAM
;ID: GAN
;Version: 2
;Flag 0
;GLOBAL 114
;TYPE 0 TERMINAL 2
;At 52.395046 -17.296452
;Label At 1.611141 -0.022287
;ROUTE 0 0
;r r 52.395046 -17.296452 0
;x y 54.006187 -17.296452 0
;y 0 54.006187 -19.124058 0
;t u 54.006187 -19.324059 0
;$ D 0.204689 0.751511
;$ C 0.000000 0.0
;$ $ 0.0 0.0
;ROUTE 1 0
;$ $ 0.0 0.0
;At 0.000000 0.000000
;Label At 0.000000 0.000000
;ROUTE 0 1
;$ $ 0.0 0.0
;ROUTE 1 1
;$ $ 0.0 0.0
;At 0.000000 0.000000
;Label At 0.000000 0.000000
;ROUTE 0 2
;$ $ 0.0 0.0
;ROUTE 1 2
;$ $ 0.0 0.0
;STREAM
;ID: LPAIR
;Version: 2
;Flag 0
;GLOBAL 117
;TYPE 0 TERMINAL 2
;At 74.998634 -22.294781
;Label At -6.998260 2.818977
;ROUTE 0 0
;r l 74.998634 -22.294781 0
;x y 71.000908 -22.294781 0
;y x 71.000908 -19.475803 0
;x 0 57.278866 -19.475803 0
;t r 57.078865 -19.475803 0
;$ D 0.066597 0.313417
;$ C 0.000000 0.0
;$ $ 0.0 0.0
;ROUTE 1 0
;$ $ 0.0 0.0
;At 0.000000 0.000000
;Label At 0.000000 0.000000
;ROUTE 0 1
;$ $ 0.0 0.0
;ROUTE 1 1
;$ $ 0.0 0.0
;At 0.000000 0.000000
;Label At 0.000000 0.000000
;ROUTE 0 2
;$ $ 0.0 0.0
;ROUTE 1 2
;$ $ 0.0 0.0
;STREAM
;ID: 405
;Version: 2
;Flag 0
;GLOBAL 117
;TYPE 0 TERMINAL 0
;At 54.787502 -24.100054
;Label At -0.075558 0.000000
;ROUTE 0 0
;r r 54.787502 -24.100054 0
;x 0 54.273888 -24.100054 0
;t r 54.073887 -24.100054 0
;$ C 1.000000 0.0
;$ $ 0.0 0.0
;ROUTE 1 0
;r r 54.787502 -24.100054 0
;x x 55.150002 -24.100054 0
;y y 55.150002 -24.077820 0
;x x 56.023895 -24.077820 0
;t l 56.223896 -24.077820 0
;$ D -0.063171 -0.139174
;$ C 0.000000 0.0
;$ $ 0.0 0.0
;At 0.000000 0.000000
;Label At 0.000000 0.000000
;ROUTE 0 1
;$ $ 0.0 0.0
;ROUTE 1 1
;$ $ 0.0 0.0
;At 0.000000 0.000000
;Label At 0.000000 0.000000
;ROUTE 0 2
;$ $ 0.0 0.0
;ROUTE 1 2
;$ $ 0.0 0.0
;STREAM
;ID: LOXX
;Version: 2
;Flag 0
;GLOBAL 117
;TYPE 0 TERMINAL 1
;At 55.399872 -23.900871
;Label At -0.324936 0.000000
;ROUTE 0 0
;$ $ 0.0 0.0
;ROUTE 1 0
;r l 55.399872 -23.900871 0
;x x 54.750004 -23.900871 0
;y y 54.750004 -23.881474 0
;x x 54.274452 -23.881474 0
;t r 54.074451 -23.881474 0
;$ D 0.372955 -0.156937
;$ C 0.000000 0.0
;$ $ 0.0 0.0
;At 0.000000 0.000000
;Label At 0.000000 0.000000
;ROUTE 0 1
;$ $ 0.0 0.0
;ROUTE 1 1
;$ $ 0.0 0.0
;At 0.000000 0.000000
;Label At 0.000000 0.000000
;ROUTE 0 2
;$ $ 0.0 0.0
;ROUTE 1 2
;$ $ 0.0 0.0
;STREAM
;ID: GOX
;Version: 2
;Flag 0
;GLOBAL 114
;TYPE 0 TERMINAL 2
;At 52.199467 -22.798508
;Label At 0.575535 -0.509155
;ROUTE 0 0
;r r 52.199467 -22.798508 0
;x y 52.775002 -22.798508 0
;y x 52.775002 -23.816820 0
;x 0 53.124458 -23.816820 0
;t l 53.324459 -23.816820 0
;$ D -0.377037 0.658751
;$ C 0.000000 0.0
;$ $ 0.0 0.0
;ROUTE 1 0
;$ $ 0.0 0.0
;At 0.000000 0.000000
;Label At 0.000000 0.000000
;ROUTE 0 1
;$ $ 0.0 0.0
;ROUTE 1 1
;$ $ 0.0 0.0
;At 0.000000 0.000000
;Label At 0.000000 0.000000
;ROUTE 0 2
;$ $ 0.0 0.0
;ROUTE 1 2
;$ $ 0.0 0.0
;STREAM
;ID: 406
;Version: 2
;Flag 0
;GLOBAL 117
;TYPE 0 TERMINAL 0
;At 58.350002 -24.098499
;Label At 0.075153 0.000000
;ROUTE 0 0
;r r 58.350002 -24.098499 0
;x y 58.000000 -24.098499 0
;y x 58.000000 -24.074364 0
;x 0 57.176941 -24.074364 0
;t r 56.976940 -24.074364 0
;$ D 0.064751 0.314857
;$ C 0.000000 0.0
;$ $ 0.0 0.0
;ROUTE 1 0
;r r 58.350002 -24.098499 0
;x x 58.850307 -24.098499 0
;y x 58.850307 -24.101133 0
;t l 59.050308 -24.101133 0
;$ C 1.000000 0.0
;$ $ 0.0 0.0
;At 0.000000 0.000000
;Label At 0.000000 0.000000
;ROUTE 0 1
;$ $ 0.0 0.0
;ROUTE 1 1
;$ $ 0.0 0.0
;At 0.000000 0.000000
;Label At 0.000000 0.000000
;ROUTE 0 2
;$ $ 0.0 0.0
;ROUTE 1 2
;$ $ 0.0 0.0
;STREAM
;ID: HPLAIR
;Version: 2
;Flag 0
;GLOBAL 117
;TYPE 0 TERMINAL 2
;At 61.199787 -23.501558
;Label At -1.012531 0.000000
;ROUTE 0 0
;r l 61.199787 -23.501558 0
;x y 59.599094 -23.501558 0
;y x 59.599094 -24.101133 0
;x 0 59.350307 -24.101133 0
;t r 59.150307 -24.101133 0
;$ C 1.000000 0.0
;$ $ 0.0 0.0
;ROUTE 1 0
;$ $ 0.0 0.0
;At 0.000000 0.000000
;Label At 0.000000 0.000000
;ROUTE 0 1
;$ $ 0.0 0.0
;ROUTE 1 1
;$ $ 0.0 0.0
;At 0.000000 0.000000
;Label At 0.000000 0.000000
;ROUTE 0 2
;$ $ 0.0 0.0
;ROUTE 1 2
;$ $ 0.0 0.0
;STREAM
;ID: LPLAIR
;Version: 2
;Flag 0
;GLOBAL 117
;TYPE 0 TERMINAL 2
;At 73.899475 -22.798729
;Label At -9.295013 1.000328
;ROUTE 0 0
;r l 73.899475 -22.798729 0
;x y 70.098953 -22.798729 0
;y x 70.098953 -21.798401 0
;x y 59.109962 -21.798401 0
;y 0 59.109962 -23.852859 0
;t u 59.109962 -24.052860 0
;$ D -0.040344 0.048273
;$ C 0.000000 0.0
;$ $ 0.0 0.0
;ROUTE 1 0
;$ $ 0.0 0.0
;At 0.000000 0.000000
;Label At 0.000000 0.000000
;ROUTE 0 1
;$ $ 0.0 0.0
;ROUTE 1 1
;$ $ 0.0 0.0
;At 0.000000 0.000000
;Label At 0.000000 0.000000
;ROUTE 0 2
;$ $ 0.0 0.0
;ROUTE 1 2
;$ $ 0.0 0.0
;LEGEND
;Version: 2
;Dim: 25.1 -5.7 28.428 -6.80872
;Size: 0.0148747
;Font: 1 0 =Times New Roman
;# of PFS Objects = 0
;VIEWPORT 43.198631 91.660568 -12.713996 -32.066044
;LAYOUT
;TableFormat 1
;Location -2.51428 23.7224 28.7291 3.84026
;PaperSize 17000 11000
;Margins 250 250 250 250
;Pages 1 1 1 1
;PAGESETUP
;PAPERSIZE 11 x 17
;PAPERSOURCE Auto Select
;ORIENTATION 1
;PRINTPAGENO 1 1
;LEFTMARGIN 0.5
;RIGHTMARGIN 0.5
;TOPMARGIN 0.5
;BOTTOMMARGIN 0.5
;VISIBILITY 0.030000
;PFDFLAG 254 254
;PFDMODE 0
;SCALE 0.014875
